**************************************
**            Input Data            **
**************************************

***** Node Data *****
                  No                   X                   Y                   Z
--------------------------------------------------------------------------------
                   1                   0                   0                   0
                   2                   1                   0                   0
                   3                   2                   0                   0
                   4                   3                   0                   0
                   5                   0                   0                   1
                   6                   1                   0                   1
                   7                   2                   0                   1
                   8                   3                   0                   1
                   9                   0                   1                   0
                  10                   1                   1                   0
                  11                   2                   1                   0
                  12                   3                   1                   0
                  13                   0                   1                   1
                  14                   1                   1                   1
                  15                   2                   1                   1
                  16                   3                   1                   1

***** Element Data *****
                  No                Type                             Node No               Young             Poisson           Thickness                Area             Density         YieldStress
----------------------------------------------------------------------------------------------------------------------------------------------------------------------------------------------------
                   1                C3D8                  1 2 10 9 5 6 14 13              210000                 0.3                None                None                   0                 400
                   2                C3D8                 2 3 11 10 6 7 15 14              210000                 0.3                None                None                   0                 400
                   3                C3D8                 3 4 12 11 7 8 16 15              210000                 0.3                None                None                   0                 400

***** SPC Constraint Data *****
              NodeNo      X Displacement      Y Displacement      Z Displacement--------------------------------------------------------------------------------
                   1                   0                   0                   0
                   5                   0                   0                   0
                   9                   0                   0                   0
                  13                   0                   0                   0
***** Nodal Force Data ******
              NodeNo             X Force             Y Force             Z Force--------------------------------------------------------------------------------
                   4                   0                  10                   0
                   8                   0                  10                   0
                  12                   0                  10                   0
                  16                   0                  10                   0

**************************************
**           Result Data            **
**************************************

*Increment 1

***** Displacement Data ******
              NodeNo           Magnitude      X Displacement      Y Displacement      Z Displacement
----------------------------------------------------------------------------------------------------
                   1                   0                   0                   0                   0
                   2     5.088746913e-05     3.325046722e-05     3.820284817e-05     -4.94806384e-06
                   3     0.0001414848387     5.425293242e-05     0.0001306586288    -1.703421494e-06
                   4      0.000258568096     6.132537703e-05     0.0002511893192    -7.644203625e-07
                   5                   0                   0                   0                   0
                   6     5.088746913e-05     3.325046722e-05     3.820284817e-05      4.94806384e-06
                   7     0.0001414848387     5.425293242e-05     0.0001306586288     1.703421494e-06
                   8      0.000258568096     6.132537703e-05     0.0002511893192     7.644203625e-07
                   9                   0                   0                   0                   0
                  10     5.088746913e-05    -3.325046722e-05     3.820284817e-05      4.94806384e-06
                  11     0.0001414848387    -5.425293242e-05     0.0001306586288     1.703421494e-06
                  12      0.000258568096    -6.132537703e-05     0.0002511893192     7.644203625e-07
                  13                   0                   0                   0                   0
                  14     5.088746913e-05    -3.325046722e-05     3.820284817e-05     -4.94806384e-06
                  15     0.0001414848387    -5.425293242e-05     0.0001306586288    -1.703421494e-06
                  16      0.000258568096    -6.132537703e-05     0.0002511893192    -7.644203625e-07

***** Stress Data ******
          Element No         Integral No           Stress XX           Stress YY           Stress ZZ           Stress XY           Stress XZ           Stress YZ               Mises            YieldFlg
                   1                   1          2.00237267        -1.098708023       -0.9036646471         1.950540347       -0.1332171034       0.09752168811         4.532713636               False
                   1                   2         1.824749866        -1.276330828       -0.5484190381        -1.150540347       -0.1332171034        0.3639558949         3.508718453               False
                   1                   3        -1.824749866         1.276330828        0.5484190381        -1.150540347        0.1332171034        0.3639558949         3.508718453               False
                   1                   4         -2.00237267         1.098708023        0.9036646471         1.950540347        0.1332171034       0.09752168811         4.532713636               False
                   1                   5          2.00237267        -1.098708023       -0.9036646471         1.950540347        0.1332171034      -0.09752168811         4.532713636               False
                   1                   6         1.824749866        -1.276330828       -0.5484190381        -1.150540347        0.1332171034       -0.3639558949         3.508718453               False
                   1                   7        -1.824749866         1.276330828        0.5484190381        -1.150540347       -0.1332171034       -0.3639558949         3.508718453               False
                   1                   8         -2.00237267         1.098708023        0.9036646471         1.950540347       -0.1332171034      -0.09752168811         4.532713636               False
                   2                   1         1.040833962       -0.9179457125       -0.1228882492         1.379389837       0.08735575546        0.3975287316         3.019390851               False
                   2                   2         1.157308302       -0.8014713719       -0.3558369304       -0.5793898371       0.08735575546        0.2228172207         2.083607822               False
                   2                   3        -1.157308302        0.8014713719        0.3558369304       -0.5793898371      -0.08735575546        0.2228172207         2.083607822               False
                   2                   4        -1.040833962        0.9179457125        0.1228882492         1.379389837      -0.08735575546        0.3975287316         3.019390851               False
                   2                   5         1.040833962       -0.9179457125       -0.1228882492         1.379389837      -0.08735575546       -0.3975287316         3.019390851               False
                   2                   6         1.157308302       -0.8014713719       -0.3558369304       -0.5793898371      -0.08735575546       -0.2228172207         2.083607822               False
                   2                   7        -1.157308302        0.8014713719        0.3558369304       -0.5793898371       0.08735575546       -0.2228172207         2.083607822               False
                   2                   8        -1.040833962        0.9179457125        0.1228882492         1.379389837       0.08735575546       -0.3975287316         3.019390851               False
                   3                   1        0.3461632496       -0.3134431644      -0.03272008524         0.729803207        0.0252807997        0.1403615396         1.409815211               False
                   3                   2        0.3798709825       -0.2797354314       -0.1001355511       0.07019679303        0.0252807997       0.08979994017        0.6243105948               False
                   3                   3       -0.3798709825        0.2797354314        0.1001355511       0.07019679303       -0.0252807997       0.08979994017        0.6243105948               False
                   3                   4       -0.3461632496        0.3134431644       0.03272008524         0.729803207       -0.0252807997        0.1403615396         1.409815211               False
                   3                   5        0.3461632496       -0.3134431644      -0.03272008524         0.729803207       -0.0252807997       -0.1403615396         1.409815211               False
                   3                   6        0.3798709825       -0.2797354314       -0.1001355511       0.07019679303       -0.0252807997      -0.08979994017        0.6243105948               False
                   3                   7       -0.3798709825        0.2797354314        0.1001355511       0.07019679303        0.0252807997      -0.08979994017        0.6243105948               False
                   3                   8       -0.3461632496        0.3134431644       0.03272008524         0.729803207        0.0252807997       -0.1403615396         1.409815211               False

***** Strain Data ******
          Element No         Integral No           Strain XX           Strain YY           Strain ZZ           Strain XY           Strain XZ           Strain YZ
                   1                   1     1.239564034e-05    -6.801525859e-06    -5.594114482e-06     2.414954715e-05    -1.649354613e-06     1.207411377e-06
                   1                   2      1.12960706e-05    -7.901095601e-06    -3.394974998e-06    -1.424478525e-05    -1.649354613e-06     4.506120603e-06
                   1                   3     -1.12960706e-05     7.901095601e-06     3.394974998e-06    -1.424478525e-05     1.649354613e-06     4.506120603e-06
                   1                   4    -1.239564034e-05     6.801525859e-06     5.594114482e-06     2.414954715e-05     1.649354613e-06     1.207411377e-06
                   1                   5     1.239564034e-05    -6.801525859e-06    -5.594114482e-06     2.414954715e-05     1.649354613e-06    -1.207411377e-06
                   1                   6      1.12960706e-05    -7.901095601e-06    -3.394974998e-06    -1.424478525e-05     1.649354613e-06    -4.506120603e-06
                   1                   7     -1.12960706e-05     7.901095601e-06     3.394974998e-06    -1.424478525e-05    -1.649354613e-06    -4.506120603e-06
                   1                   8    -1.239564034e-05     6.801525859e-06     5.594114482e-06     2.414954715e-05    -1.649354613e-06    -1.207411377e-06
                   2                   1     6.443257858e-06    -5.682521077e-06    -7.607367807e-07     1.707815989e-05     1.081547449e-06     4.921784297e-06
                   2                   2      7.16428949e-06    -4.961489445e-06    -2.202800046e-06    -7.173397983e-06     1.081547449e-06     2.758689399e-06
                   2                   3     -7.16428949e-06     4.961489445e-06     2.202800046e-06    -7.173397983e-06    -1.081547449e-06     2.758689399e-06
                   2                   4    -6.443257858e-06     5.682521077e-06     7.607367807e-07     1.707815989e-05    -1.081547449e-06     4.921784297e-06
                   2                   5     6.443257858e-06    -5.682521077e-06    -7.607367807e-07     1.707815989e-05    -1.081547449e-06    -4.921784297e-06
                   2                   6      7.16428949e-06    -4.961489445e-06    -2.202800046e-06    -7.173397983e-06    -1.081547449e-06    -2.758689399e-06
                   2                   7     -7.16428949e-06     4.961489445e-06     2.202800046e-06    -7.173397983e-06     1.081547449e-06    -2.758689399e-06
                   2                   8    -6.443257858e-06     5.682521077e-06     7.607367807e-07     1.707815989e-05     1.081547449e-06    -4.921784297e-06
                   3                   1     2.142915355e-06    -1.940362446e-06    -2.025529086e-07     9.035658753e-06     3.130003772e-07     1.737809537e-06
                   3                   2     2.351582273e-06    -1.731695528e-06    -6.198867449e-07     8.691031518e-07     3.130003772e-07     1.111808783e-06
                   3                   3    -2.351582273e-06     1.731695528e-06     6.198867449e-07     8.691031518e-07    -3.130003772e-07     1.111808783e-06
                   3                   4    -2.142915355e-06     1.940362446e-06     2.025529086e-07     9.035658753e-06    -3.130003772e-07     1.737809537e-06
                   3                   5     2.142915355e-06    -1.940362446e-06    -2.025529086e-07     9.035658753e-06    -3.130003772e-07    -1.737809537e-06
                   3                   6     2.351582273e-06    -1.731695528e-06    -6.198867449e-07     8.691031518e-07    -3.130003772e-07    -1.111808783e-06
                   3                   7    -2.351582273e-06     1.731695528e-06     6.198867449e-07     8.691031518e-07     3.130003772e-07    -1.111808783e-06
                   3                   8    -2.142915355e-06     1.940362446e-06     2.025529086e-07     9.035658753e-06     3.130003772e-07    -1.737809537e-06

***** Plastic Strain Data ******
          Element No         Integral No          PStrain XX          PStrain YY          PStrain ZZ          PStrain XY          PStrain XZ          PStrain YZ
                   1                   1                   0                   0                   0                   0                   0                   0
                   1                   2                   0                   0                   0                   0                   0                   0
                   1                   3                   0                   0                   0                   0                   0                   0
                   1                   4                   0                   0                   0                   0                   0                   0
                   1                   5                   0                   0                   0                   0                   0                   0
                   1                   6                   0                   0                   0                   0                   0                   0
                   1                   7                   0                   0                   0                   0                   0                   0
                   1                   8                   0                   0                   0                   0                   0                   0
                   2                   1                   0                   0                   0                   0                   0                   0
                   2                   2                   0                   0                   0                   0                   0                   0
                   2                   3                   0                   0                   0                   0                   0                   0
                   2                   4                   0                   0                   0                   0                   0                   0
                   2                   5                   0                   0                   0                   0                   0                   0
                   2                   6                   0                   0                   0                   0                   0                   0
                   2                   7                   0                   0                   0                   0                   0                   0
                   2                   8                   0                   0                   0                   0                   0                   0
                   3                   1                   0                   0                   0                   0                   0                   0
                   3                   2                   0                   0                   0                   0                   0                   0
                   3                   3                   0                   0                   0                   0                   0                   0
                   3                   4                   0                   0                   0                   0                   0                   0
                   3                   5                   0                   0                   0                   0                   0                   0
                   3                   6                   0                   0                   0                   0                   0                   0
                   3                   7                   0                   0                   0                   0                   0                   0
                   3                   8                   0                   0                   0                   0                   0                   0

***** Reaction Force Data ******
              NodeNo           Magnitude             X Force             Y Force             Z Force----------------------------------------------------------------------------------------------------
                   1        0.6178764381                -0.6                -0.1        0.1084955884
                   2     3.480531475e-16     2.775557562e-16    -2.775557562e-17    -2.081668171e-16
                   3     3.796789791e-15     3.552713679e-15     1.221245327e-15     5.499073419e-16
                   4     1.744650056e-15    -5.577135975e-16     3.885780586e-16      1.60678762e-15
                   5        0.6178764381                -0.6                -0.1       -0.1084955884
                   6     2.260344024e-15    -5.551115123e-17     1.859623566e-15     1.283695372e-15
                   7     2.842821729e-15     8.326672685e-17    -2.692290835e-15     9.089951014e-16
                   8     1.395709825e-15    -3.504141421e-16     1.346145417e-15     1.144917494e-16
                   9        0.6178764381                 0.6                -0.1       -0.1084955884
                  10     8.163159687e-16                   0     7.771561172e-16    -2.498001805e-16
                  11     3.085842929e-15     1.859623566e-15     2.331468352e-15    -7.927686285e-16
                  12     1.368901418e-15    -1.100248365e-15    -4.579669977e-16    -6.735063895e-16
                  13        0.6178764381                 0.6                -0.1        0.1084955884
                  14     8.007134809e-16    -6.661338148e-16    -4.440892099e-16     1.387778781e-17
                  15     2.640559129e-15    -4.440892099e-16    -1.831867991e-15    -1.849215225e-15
                  16     2.896990656e-15     5.533767888e-16    -2.706168623e-15    -8.734874803e-16

*Increment 2

***** Displacement Data ******
              NodeNo           Magnitude      X Displacement      Y Displacement      Z Displacement
----------------------------------------------------------------------------------------------------
                   1                   0                   0                   0                   0
                   2     0.0001017749383     6.650093444e-05     7.640569634e-05     -9.89612768e-06
                   3     0.0002829696775     0.0001085058648     0.0002613172575    -3.406842988e-06
                   4      0.000517136192     0.0001226507541     0.0005023786383    -1.528840725e-06
                   5                   0                   0                   0                   0
                   6     0.0001017749383     6.650093444e-05     7.640569634e-05      9.89612768e-06
                   7     0.0002829696775     0.0001085058648     0.0002613172575     3.406842988e-06
                   8      0.000517136192     0.0001226507541     0.0005023786383     1.528840725e-06
                   9                   0                   0                   0                   0
                  10     0.0001017749383    -6.650093444e-05     7.640569634e-05      9.89612768e-06
                  11     0.0002829696775    -0.0001085058648     0.0002613172575     3.406842988e-06
                  12      0.000517136192    -0.0001226507541     0.0005023786383     1.528840725e-06
                  13                   0                   0                   0                   0
                  14     0.0001017749383    -6.650093444e-05     7.640569634e-05     -9.89612768e-06
                  15     0.0002829696775    -0.0001085058648     0.0002613172575    -3.406842988e-06
                  16      0.000517136192    -0.0001226507541     0.0005023786383    -1.528840725e-06

***** Stress Data ******
          Element No         Integral No           Stress XX           Stress YY           Stress ZZ           Stress XY           Stress XZ           Stress YZ               Mises            YieldFlg
                   1                   1         4.004745341        -2.197416047        -1.807329294         3.901080694       -0.2664342068        0.1950433762         9.065427271               False
                   1                   2         3.649499732        -2.552661656        -1.096838076        -2.301080694       -0.2664342068        0.7279117897         7.017436907               False
                   1                   3        -3.649499732         2.552661656         1.096838076        -2.301080694        0.2664342068        0.7279117897         7.017436907               False
                   1                   4        -4.004745341         2.197416047         1.807329294         3.901080694        0.2664342068        0.1950433762         9.065427271               False
                   1                   5         4.004745341        -2.197416047        -1.807329294         3.901080694        0.2664342068       -0.1950433762         9.065427271               False
                   1                   6         3.649499732        -2.552661656        -1.096838076        -2.301080694        0.2664342068       -0.7279117897         7.017436907               False
                   1                   7        -3.649499732         2.552661656         1.096838076        -2.301080694       -0.2664342068       -0.7279117897         7.017436907               False
                   1                   8        -4.004745341         2.197416047         1.807329294         3.901080694       -0.2664342068       -0.1950433762         9.065427271               False
                   2                   1         2.081667923        -1.835891425       -0.2457764984         2.758779674        0.1747115109        0.7950574633         6.038781702               False
                   2                   2         2.314616605        -1.602942744       -0.7116738609        -1.158779674        0.1747115109        0.4456344414         4.167215644               False
                   2                   3        -2.314616605         1.602942744        0.7116738609        -1.158779674       -0.1747115109        0.4456344414         4.167215644               False
                   2                   4        -2.081667923         1.835891425        0.2457764984         2.758779674       -0.1747115109        0.7950574633         6.038781702               False
                   2                   5         2.081667923        -1.835891425       -0.2457764984         2.758779674       -0.1747115109       -0.7950574633         6.038781702               False
                   2                   6         2.314616605        -1.602942744       -0.7116738609        -1.158779674       -0.1747115109       -0.4456344414         4.167215644               False
                   2                   7        -2.314616605         1.602942744        0.7116738609        -1.158779674        0.1747115109       -0.4456344414         4.167215644               False
                   2                   8        -2.081667923         1.835891425        0.2457764984         2.758779674        0.1747115109       -0.7950574633         6.038781702               False
                   3                   1        0.6923264992       -0.6268863287      -0.06544017047         1.459606414       0.05056159939        0.2807230791         2.819630422               False
                   3                   2         0.759741965       -0.5594708629       -0.2002711022        0.1403935861       0.05056159939        0.1795998803          1.24862119               False
                   3                   3        -0.759741965        0.5594708629        0.2002711022        0.1403935861      -0.05056159939        0.1795998803          1.24862119               False
                   3                   4       -0.6923264992        0.6268863287       0.06544017047         1.459606414      -0.05056159939        0.2807230791         2.819630422               False
                   3                   5        0.6923264992       -0.6268863287      -0.06544017047         1.459606414      -0.05056159939       -0.2807230791         2.819630422               False
                   3                   6         0.759741965       -0.5594708629       -0.2002711022        0.1403935861      -0.05056159939       -0.1795998803          1.24862119               False
                   3                   7        -0.759741965        0.5594708629        0.2002711022        0.1403935861       0.05056159939       -0.1795998803          1.24862119               False
                   3                   8       -0.6923264992        0.6268863287       0.06544017047         1.459606414       0.05056159939       -0.2807230791         2.819630422               False

***** Strain Data ******
          Element No         Integral No           Strain XX           Strain YY           Strain ZZ           Strain XY           Strain XZ           Strain YZ
                   1                   1     2.479128068e-05    -1.360305172e-05    -1.118822896e-05      4.82990943e-05    -3.298709227e-06     2.414822753e-06
                   1                   2      2.25921412e-05     -1.58021912e-05    -6.789949996e-06    -2.848957049e-05    -3.298709227e-06     9.012241206e-06
                   1                   3     -2.25921412e-05      1.58021912e-05     6.789949996e-06    -2.848957049e-05     3.298709227e-06     9.012241206e-06
                   1                   4    -2.479128068e-05     1.360305172e-05     1.118822896e-05      4.82990943e-05     3.298709227e-06     2.414822753e-06
                   1                   5     2.479128068e-05    -1.360305172e-05    -1.118822896e-05      4.82990943e-05     3.298709227e-06    -2.414822753e-06
                   1                   6      2.25921412e-05     -1.58021912e-05    -6.789949996e-06    -2.848957049e-05     3.298709227e-06    -9.012241206e-06
                   1                   7     -2.25921412e-05      1.58021912e-05     6.789949996e-06    -2.848957049e-05    -3.298709227e-06    -9.012241206e-06
                   1                   8    -2.479128068e-05     1.360305172e-05     1.118822896e-05      4.82990943e-05    -3.298709227e-06    -2.414822753e-06
                   2                   1     1.288651572e-05    -1.136504215e-05    -1.521473561e-06     3.415631978e-05     2.163094897e-06     9.843568593e-06
                   2                   2     1.432857898e-05     -9.92297889e-06    -4.405600091e-06    -1.434679597e-05     2.163094897e-06     5.517378799e-06
                   2                   3    -1.432857898e-05      9.92297889e-06     4.405600091e-06    -1.434679597e-05    -2.163094897e-06     5.517378799e-06
                   2                   4    -1.288651572e-05     1.136504215e-05     1.521473561e-06     3.415631978e-05    -2.163094897e-06     9.843568593e-06
                   2                   5     1.288651572e-05    -1.136504215e-05    -1.521473561e-06     3.415631978e-05    -2.163094897e-06    -9.843568593e-06
                   2                   6     1.432857898e-05     -9.92297889e-06    -4.405600091e-06    -1.434679597e-05    -2.163094897e-06    -5.517378799e-06
                   2                   7    -1.432857898e-05      9.92297889e-06     4.405600091e-06    -1.434679597e-05     2.163094897e-06    -5.517378799e-06
                   2                   8    -1.288651572e-05     1.136504215e-05     1.521473561e-06     3.415631978e-05     2.163094897e-06    -9.843568593e-06
                   3                   1     4.285830709e-06    -3.880724892e-06    -4.051058172e-07     1.807131751e-05     6.260007544e-07     3.475619075e-06
                   3                   2     4.703164545e-06    -3.463391056e-06     -1.23977349e-06     1.738206304e-06     6.260007544e-07     2.223617566e-06
                   3                   3    -4.703164545e-06     3.463391056e-06      1.23977349e-06     1.738206304e-06    -6.260007544e-07     2.223617566e-06
                   3                   4    -4.285830709e-06     3.880724892e-06     4.051058172e-07     1.807131751e-05    -6.260007544e-07     3.475619075e-06
                   3                   5     4.285830709e-06    -3.880724892e-06    -4.051058172e-07     1.807131751e-05    -6.260007544e-07    -3.475619075e-06
                   3                   6     4.703164545e-06    -3.463391056e-06     -1.23977349e-06     1.738206304e-06    -6.260007544e-07    -2.223617566e-06
                   3                   7    -4.703164545e-06     3.463391056e-06      1.23977349e-06     1.738206304e-06     6.260007544e-07    -2.223617566e-06
                   3                   8    -4.285830709e-06     3.880724892e-06     4.051058172e-07     1.807131751e-05     6.260007544e-07    -3.475619075e-06

***** Plastic Strain Data ******
          Element No         Integral No          PStrain XX          PStrain YY          PStrain ZZ          PStrain XY          PStrain XZ          PStrain YZ
                   1                   1                   0                   0                   0                   0                   0                   0
                   1                   2                   0                   0                   0                   0                   0                   0
                   1                   3                   0                   0                   0                   0                   0                   0
                   1                   4                   0                   0                   0                   0                   0                   0
                   1                   5                   0                   0                   0                   0                   0                   0
                   1                   6                   0                   0                   0                   0                   0                   0
                   1                   7                   0                   0                   0                   0                   0                   0
                   1                   8                   0                   0                   0                   0                   0                   0
                   2                   1                   0                   0                   0                   0                   0                   0
                   2                   2                   0                   0                   0                   0                   0                   0
                   2                   3                   0                   0                   0                   0                   0                   0
                   2                   4                   0                   0                   0                   0                   0                   0
                   2                   5                   0                   0                   0                   0                   0                   0
                   2                   6                   0                   0                   0                   0                   0                   0
                   2                   7                   0                   0                   0                   0                   0                   0
                   2                   8                   0                   0                   0                   0                   0                   0
                   3                   1                   0                   0                   0                   0                   0                   0
                   3                   2                   0                   0                   0                   0                   0                   0
                   3                   3                   0                   0                   0                   0                   0                   0
                   3                   4                   0                   0                   0                   0                   0                   0
                   3                   5                   0                   0                   0                   0                   0                   0
                   3                   6                   0                   0                   0                   0                   0                   0
                   3                   7                   0                   0                   0                   0                   0                   0
                   3                   8                   0                   0                   0                   0                   0                   0

***** Reaction Force Data ******
              NodeNo           Magnitude             X Force             Y Force             Z Force----------------------------------------------------------------------------------------------------
                   1         1.235752876                -1.2                -0.2        0.2169911768
                   2      6.96106295e-16     5.551115123e-16    -5.551115123e-17    -4.163336342e-16
                   3     7.593579582e-15     7.105427358e-15     2.442490654e-15     1.099814684e-15
                   4     3.489300113e-15    -1.115427195e-15     7.771561172e-16     3.213575239e-15
                   5         1.235752876                -1.2                -0.2       -0.2169911768
                   6     4.520688047e-15    -1.110223025e-16     3.719247132e-15     2.567390744e-15
                   7     5.685643457e-15     1.665334537e-16    -5.384581669e-15     1.817990203e-15
                   8     2.791419651e-15    -7.008282843e-16     2.692290835e-15     2.289834988e-16
                   9         1.235752876                 1.2                -0.2       -0.2169911768
                  10     1.632631937e-15                   0     1.554312234e-15    -4.996003611e-16
                  11     6.171685858e-15     3.719247132e-15     4.662936703e-15    -1.585537257e-15
                  12     2.737802836e-15    -2.200496729e-15    -9.159339953e-16    -1.347012779e-15
                  13         1.235752876                 1.2                -0.2        0.2169911768
                  14     1.601426962e-15     -1.33226763e-15    -8.881784197e-16     2.775557562e-17
                  15     5.281118257e-15    -8.881784197e-16    -3.663735981e-15    -3.698430451e-15
                  16     5.793981312e-15     1.106753578e-15    -5.412337245e-15    -1.746974961e-15

*Increment 3

***** Displacement Data ******
              NodeNo           Magnitude      X Displacement      Y Displacement      Z Displacement
----------------------------------------------------------------------------------------------------
                   1                   0                   0                   0                   0
                   2     0.0001526624074     9.975140166e-05     0.0001146085445    -1.484419152e-05
                   3     0.0004244545162     0.0001627587973     0.0003919758863    -5.110264482e-06
                   4      0.000775704288     0.0001839761311     0.0007535679575    -2.293261088e-06
                   5                   0                   0                   0                   0
                   6     0.0001526624074     9.975140166e-05     0.0001146085445     1.484419152e-05
                   7     0.0004244545162     0.0001627587973     0.0003919758863     5.110264482e-06
                   8      0.000775704288     0.0001839761311     0.0007535679575     2.293261088e-06
                   9                   0                   0                   0                   0
                  10     0.0001526624074    -9.975140166e-05     0.0001146085445     1.484419152e-05
                  11     0.0004244545162    -0.0001627587973     0.0003919758863     5.110264482e-06
                  12      0.000775704288    -0.0001839761311     0.0007535679575     2.293261088e-06
                  13                   0                   0                   0                   0
                  14     0.0001526624074    -9.975140166e-05     0.0001146085445    -1.484419152e-05
                  15     0.0004244545162    -0.0001627587973     0.0003919758863    -5.110264482e-06
                  16      0.000775704288    -0.0001839761311     0.0007535679575    -2.293261088e-06

***** Stress Data ******
          Element No         Integral No           Stress XX           Stress YY           Stress ZZ           Stress XY           Stress XZ           Stress YZ               Mises            YieldFlg
                   1                   1         6.007118011         -3.29612407        -2.710993941         5.851621041       -0.3996513101        0.2925650643         13.59814091               False
                   1                   2         5.474249598        -3.828992484        -1.645257114        -3.451621041       -0.3996513101         1.091867685         10.52615536               False
                   1                   3        -5.474249598         3.828992484         1.645257114        -3.451621041        0.3996513101         1.091867685         10.52615536               False
                   1                   4        -6.007118011          3.29612407         2.710993941         5.851621041        0.3996513101        0.2925650643         13.59814091               False
                   1                   5         6.007118011         -3.29612407        -2.710993941         5.851621041        0.3996513101       -0.2925650643         13.59814091               False
                   1                   6         5.474249598        -3.828992484        -1.645257114        -3.451621041        0.3996513101        -1.091867685         10.52615536               False
                   1                   7        -5.474249598         3.828992484         1.645257114        -3.451621041       -0.3996513101        -1.091867685         10.52615536               False
                   1                   8        -6.007118011          3.29612407         2.710993941         5.851621041       -0.3996513101       -0.2925650643         13.59814091               False
                   2                   1         3.122501885        -2.753837137       -0.3686647476         4.138169511        0.2620672664         1.192586195         9.058172554               False
                   2                   2         3.471924907        -2.404414116        -1.067510791        -1.738169511        0.2620672664        0.6684516622         6.250823467               False
                   2                   3        -3.471924907         2.404414116         1.067510791        -1.738169511       -0.2620672664        0.6684516622         6.250823467               False
                   2                   4        -3.122501885         2.753837137        0.3686647476         4.138169511       -0.2620672664         1.192586195         9.058172554               False
                   2                   5         3.122501885        -2.753837137       -0.3686647476         4.138169511       -0.2620672664        -1.192586195         9.058172554               False
                   2                   6         3.471924907        -2.404414116        -1.067510791        -1.738169511       -0.2620672664       -0.6684516622         6.250823467               False
                   2                   7        -3.471924907         2.404414116         1.067510791        -1.738169511        0.2620672664       -0.6684516622         6.250823467               False
                   2                   8        -3.122501885         2.753837137        0.3686647476         4.138169511        0.2620672664        -1.192586195         9.058172554               False
                   3                   1         1.038489749       -0.9403294931      -0.09816025571         2.189409621       0.07584239909        0.4210846187         4.229445633               False
                   3                   2         1.139612948       -0.8392062943       -0.3004066533        0.2105903791       0.07584239909        0.2693998205         1.872931785               False
                   3                   3        -1.139612948        0.8392062943        0.3004066533        0.2105903791      -0.07584239909        0.2693998205         1.872931785               False
                   3                   4        -1.038489749        0.9403294931       0.09816025571         2.189409621      -0.07584239909        0.4210846187         4.229445633               False
                   3                   5         1.038489749       -0.9403294931      -0.09816025571         2.189409621      -0.07584239909       -0.4210846187         4.229445633               False
                   3                   6         1.139612948       -0.8392062943       -0.3004066533        0.2105903791      -0.07584239909       -0.2693998205         1.872931785               False
                   3                   7        -1.139612948        0.8392062943        0.3004066533        0.2105903791       0.07584239909       -0.2693998205         1.872931785               False
                   3                   8        -1.038489749        0.9403294931       0.09816025571         2.189409621       0.07584239909       -0.4210846187         4.229445633               False

***** Strain Data ******
          Element No         Integral No           Strain XX           Strain YY           Strain ZZ           Strain XY           Strain XZ           Strain YZ
                   1                   1     3.718692102e-05    -2.040457758e-05    -1.678234345e-05     7.244864146e-05     -4.94806384e-06      3.62223413e-06
                   1                   2      3.38882118e-05     -2.37032868e-05    -1.018492499e-05    -4.273435574e-05     -4.94806384e-06     1.351836181e-05
                   1                   3     -3.38882118e-05      2.37032868e-05     1.018492499e-05    -4.273435574e-05      4.94806384e-06     1.351836181e-05
                   1                   4    -3.718692102e-05     2.040457758e-05     1.678234345e-05     7.244864146e-05      4.94806384e-06      3.62223413e-06
                   1                   5     3.718692102e-05    -2.040457758e-05    -1.678234345e-05     7.244864146e-05      4.94806384e-06     -3.62223413e-06
                   1                   6      3.38882118e-05     -2.37032868e-05    -1.018492499e-05    -4.273435574e-05      4.94806384e-06    -1.351836181e-05
                   1                   7     -3.38882118e-05      2.37032868e-05     1.018492499e-05    -4.273435574e-05     -4.94806384e-06    -1.351836181e-05
                   1                   8    -3.718692102e-05     2.040457758e-05     1.678234345e-05     7.244864146e-05     -4.94806384e-06     -3.62223413e-06
                   2                   1     1.932977357e-05    -1.704756323e-05    -2.282210342e-06     5.123447966e-05     3.244642346e-06     1.476535289e-05
                   2                   2     2.149286847e-05    -1.488446833e-05    -6.608400137e-06    -2.152019395e-05     3.244642346e-06     8.276068198e-06
                   2                   3    -2.149286847e-05     1.488446833e-05     6.608400137e-06    -2.152019395e-05    -3.244642346e-06     8.276068198e-06
                   2                   4    -1.932977357e-05     1.704756323e-05     2.282210342e-06     5.123447966e-05    -3.244642346e-06     1.476535289e-05
                   2                   5     1.932977357e-05    -1.704756323e-05    -2.282210342e-06     5.123447966e-05    -3.244642346e-06    -1.476535289e-05
                   2                   6     2.149286847e-05    -1.488446833e-05    -6.608400137e-06    -2.152019395e-05    -3.244642346e-06    -8.276068198e-06
                   2                   7    -2.149286847e-05     1.488446833e-05     6.608400137e-06    -2.152019395e-05     3.244642346e-06    -8.276068198e-06
                   2                   8    -1.932977357e-05     1.704756323e-05     2.282210342e-06     5.123447966e-05     3.244642346e-06    -1.476535289e-05
                   3                   1     6.428746064e-06    -5.821087338e-06    -6.076587258e-07     2.710697626e-05     9.390011315e-07     5.213428612e-06
                   3                   2     7.054746818e-06    -5.195086584e-06    -1.859660235e-06     2.607309455e-06     9.390011315e-07     3.335426349e-06
                   3                   3    -7.054746818e-06     5.195086584e-06     1.859660235e-06     2.607309455e-06    -9.390011315e-07     3.335426349e-06
                   3                   4    -6.428746064e-06     5.821087338e-06     6.076587258e-07     2.710697626e-05    -9.390011315e-07     5.213428612e-06
                   3                   5     6.428746064e-06    -5.821087338e-06    -6.076587258e-07     2.710697626e-05    -9.390011315e-07    -5.213428612e-06
                   3                   6     7.054746818e-06    -5.195086584e-06    -1.859660235e-06     2.607309455e-06    -9.390011315e-07    -3.335426349e-06
                   3                   7    -7.054746818e-06     5.195086584e-06     1.859660235e-06     2.607309455e-06     9.390011315e-07    -3.335426349e-06
                   3                   8    -6.428746064e-06     5.821087338e-06     6.076587258e-07     2.710697626e-05     9.390011315e-07    -5.213428612e-06

***** Plastic Strain Data ******
          Element No         Integral No          PStrain XX          PStrain YY          PStrain ZZ          PStrain XY          PStrain XZ          PStrain YZ
                   1                   1                   0                   0                   0                   0                   0                   0
                   1                   2                   0                   0                   0                   0                   0                   0
                   1                   3                   0                   0                   0                   0                   0                   0
                   1                   4                   0                   0                   0                   0                   0                   0
                   1                   5                   0                   0                   0                   0                   0                   0
                   1                   6                   0                   0                   0                   0                   0                   0
                   1                   7                   0                   0                   0                   0                   0                   0
                   1                   8                   0                   0                   0                   0                   0                   0
                   2                   1                   0                   0                   0                   0                   0                   0
                   2                   2                   0                   0                   0                   0                   0                   0
                   2                   3                   0                   0                   0                   0                   0                   0
                   2                   4                   0                   0                   0                   0                   0                   0
                   2                   5                   0                   0                   0                   0                   0                   0
                   2                   6                   0                   0                   0                   0                   0                   0
                   2                   7                   0                   0                   0                   0                   0                   0
                   2                   8                   0                   0                   0                   0                   0                   0
                   3                   1                   0                   0                   0                   0                   0                   0
                   3                   2                   0                   0                   0                   0                   0                   0
                   3                   3                   0                   0                   0                   0                   0                   0
                   3                   4                   0                   0                   0                   0                   0                   0
                   3                   5                   0                   0                   0                   0                   0                   0
                   3                   6                   0                   0                   0                   0                   0                   0
                   3                   7                   0                   0                   0                   0                   0                   0
                   3                   8                   0                   0                   0                   0                   0                   0

***** Reaction Force Data ******
              NodeNo           Magnitude             X Force             Y Force             Z Force----------------------------------------------------------------------------------------------------
                   1         1.853629314                -1.8                -0.3        0.3254867652
                   2      3.31004877e-15    -2.886579864e-15    -1.110223025e-15    -1.179611964e-15
                   3     9.134958292e-15     8.437694987e-15     3.441691376e-15     6.383782392e-16
                   4     3.394535187e-15     3.920475056e-16     1.221245327e-15     3.142885258e-15
                   5         1.853629314                -1.8                -0.3       -0.3254867652
                   6     4.439851142e-15    -1.998401444e-15     2.775557562e-15     2.831068713e-15
                   7     6.754025055e-15     1.665334537e-15     -6.32827124e-15     1.672273431e-15
                   8     7.848530298e-15     5.134781489e-16     7.549516567e-15    -2.083402895e-15
                   9         1.853629314                 1.8                -0.3       -0.3254867652
                  10     3.249684856e-15     -1.33226763e-15     2.442490654e-15    -1.679212325e-15
                  11     7.386960168e-15     3.996802889e-15     6.161737787e-15     -7.91033905e-16
                  12     7.686636076e-15    -2.987193826e-15    -6.994405055e-15     1.113258791e-15
                  13         1.853629314                 1.8                -0.3        0.3254867652
                  14     3.113576877e-15    -3.108624469e-15     1.665334537e-16     5.551115123e-17
                  15     5.369681777e-15     1.776356839e-15    -3.441691376e-15    -3.719247132e-15
                  16     7.305387852e-15     4.510281038e-16    -7.271960811e-15    -5.327769476e-16

*Increment 4

***** Displacement Data ******
              NodeNo           Magnitude      X Displacement      Y Displacement      Z Displacement
----------------------------------------------------------------------------------------------------
                   1                   0                   0                   0                   0
                   2     0.0002035498765     0.0001330018689     0.0001528113927    -1.979225536e-05
                   3     0.0005659393549     0.0002170117297      0.000522634515    -6.813685976e-06
                   4      0.001034272384     0.0002453015081      0.001004757277     -3.05768145e-06
                   5                   0                   0                   0                   0
                   6     0.0002035498765     0.0001330018689     0.0001528113927     1.979225536e-05
                   7     0.0005659393549     0.0002170117297      0.000522634515     6.813685976e-06
                   8      0.001034272384     0.0002453015081      0.001004757277      3.05768145e-06
                   9                   0                   0                   0                   0
                  10     0.0002035498765    -0.0001330018689     0.0001528113927     1.979225536e-05
                  11     0.0005659393549    -0.0002170117297      0.000522634515     6.813685976e-06
                  12      0.001034272384    -0.0002453015081      0.001004757277      3.05768145e-06
                  13                   0                   0                   0                   0
                  14     0.0002035498765    -0.0001330018689     0.0001528113927    -1.979225536e-05
                  15     0.0005659393549    -0.0002170117297      0.000522634515    -6.813685976e-06
                  16      0.001034272384    -0.0002453015081      0.001004757277     -3.05768145e-06

***** Stress Data ******
          Element No         Integral No           Stress XX           Stress YY           Stress ZZ           Stress XY           Stress XZ           Stress YZ               Mises            YieldFlg
                   1                   1         8.009490682        -4.394832093        -3.614658589         7.802161388       -0.5328684135        0.3900867524         18.13085454               False
                   1                   2         7.298999464        -5.105323311        -2.193676152        -4.602161388       -0.5328684135         1.455823579         14.03487381               False
                   1                   3        -7.298999464         5.105323311         2.193676152        -4.602161388        0.5328684135         1.455823579         14.03487381               False
                   1                   4        -8.009490682         4.394832093         3.614658589         7.802161388        0.5328684135        0.3900867524         18.13085454               False
                   1                   5         8.009490682        -4.394832093        -3.614658589         7.802161388        0.5328684135       -0.3900867524         18.13085454               False
                   1                   6         7.298999464        -5.105323311        -2.193676152        -4.602161388        0.5328684135        -1.455823579         14.03487381               False
                   1                   7        -7.298999464         5.105323311         2.193676152        -4.602161388       -0.5328684135        -1.455823579         14.03487381               False
                   1                   8        -8.009490682         4.394832093         3.614658589         7.802161388       -0.5328684135       -0.3900867524         18.13085454               False
                   2                   1         4.163335847         -3.67178285       -0.4915529968         5.517559348        0.3494230218         1.590114927          12.0775634               False
                   2                   2         4.629233209        -3.205885487        -1.423347722        -2.317559348        0.3494230218        0.8912688829         8.334431289               False
                   2                   3        -4.629233209         3.205885487         1.423347722        -2.317559348       -0.3494230218        0.8912688829         8.334431289               False
                   2                   4        -4.163335847          3.67178285        0.4915529968         5.517559348       -0.3494230218         1.590114927          12.0775634               False
                   2                   5         4.163335847         -3.67178285       -0.4915529968         5.517559348       -0.3494230218        -1.590114927          12.0775634               False
                   2                   6         4.629233209        -3.205885487        -1.423347722        -2.317559348       -0.3494230218       -0.8912688829         8.334431289               False
                   2                   7        -4.629233209         3.205885487         1.423347722        -2.317559348        0.3494230218       -0.8912688829         8.334431289               False
                   2                   8        -4.163335847          3.67178285        0.4915529968         5.517559348        0.3494230218        -1.590114927          12.0775634               False
                   3                   1         1.384652998        -1.253772657       -0.1308803409         2.919212828        0.1011231988        0.5614461582         5.639260845               False
                   3                   2          1.51948393        -1.118941726       -0.4005422044        0.2807871721        0.1011231988        0.3591997607         2.497242379               False
                   3                   3         -1.51948393         1.118941726        0.4005422044        0.2807871721       -0.1011231988        0.3591997607         2.497242379               False
                   3                   4        -1.384652998         1.253772657        0.1308803409         2.919212828       -0.1011231988        0.5614461582         5.639260845               False
                   3                   5         1.384652998        -1.253772657       -0.1308803409         2.919212828       -0.1011231988       -0.5614461582         5.639260845               False
                   3                   6          1.51948393        -1.118941726       -0.4005422044        0.2807871721       -0.1011231988       -0.3591997607         2.497242379               False
                   3                   7         -1.51948393         1.118941726        0.4005422044        0.2807871721        0.1011231988       -0.3591997607         2.497242379               False
                   3                   8        -1.384652998         1.253772657        0.1308803409         2.919212828        0.1011231988       -0.5614461582         5.639260845               False

***** Strain Data ******
          Element No         Integral No           Strain XX           Strain YY           Strain ZZ           Strain XY           Strain XZ           Strain YZ
                   1                   1     4.958256136e-05    -2.720610344e-05    -2.237645793e-05     9.659818861e-05    -6.597418453e-06     4.829645506e-06
                   1                   2      4.51842824e-05     -3.16043824e-05    -1.357989999e-05    -5.697914099e-05    -6.597418453e-06     1.802448241e-05
                   1                   3     -4.51842824e-05      3.16043824e-05     1.357989999e-05    -5.697914099e-05     6.597418453e-06     1.802448241e-05
                   1                   4    -4.958256136e-05     2.720610344e-05     2.237645793e-05     9.659818861e-05     6.597418453e-06     4.829645506e-06
                   1                   5     4.958256136e-05    -2.720610344e-05    -2.237645793e-05     9.659818861e-05     6.597418453e-06    -4.829645506e-06
                   1                   6      4.51842824e-05     -3.16043824e-05    -1.357989999e-05    -5.697914099e-05     6.597418453e-06    -1.802448241e-05
                   1                   7     -4.51842824e-05      3.16043824e-05     1.357989999e-05    -5.697914099e-05    -6.597418453e-06    -1.802448241e-05
                   1                   8    -4.958256136e-05     2.720610344e-05     2.237645793e-05     9.659818861e-05    -6.597418453e-06    -4.829645506e-06
                   2                   1     2.577303143e-05    -2.273008431e-05    -3.042947123e-06     6.831263955e-05     4.326189794e-06     1.968713719e-05
                   2                   2     2.865715796e-05    -1.984595778e-05    -8.811200182e-06    -2.869359193e-05     4.326189794e-06      1.10347576e-05
                   2                   3    -2.865715796e-05     1.984595778e-05     8.811200182e-06    -2.869359193e-05    -4.326189794e-06      1.10347576e-05
                   2                   4    -2.577303143e-05     2.273008431e-05     3.042947123e-06     6.831263955e-05    -4.326189794e-06     1.968713719e-05
                   2                   5     2.577303143e-05    -2.273008431e-05    -3.042947123e-06     6.831263955e-05    -4.326189794e-06    -1.968713719e-05
                   2                   6     2.865715796e-05    -1.984595778e-05    -8.811200182e-06    -2.869359193e-05    -4.326189794e-06     -1.10347576e-05
                   2                   7    -2.865715796e-05     1.984595778e-05     8.811200182e-06    -2.869359193e-05     4.326189794e-06     -1.10347576e-05
                   2                   8    -2.577303143e-05     2.273008431e-05     3.042947123e-06     6.831263955e-05     4.326189794e-06    -1.968713719e-05
                   3                   1     8.571661418e-06    -7.761449784e-06    -8.102116344e-07     3.614263501e-05     1.252001509e-06      6.95123815e-06
                   3                   2     9.406329091e-06    -6.926782112e-06    -2.479546979e-06     3.476412607e-06     1.252001509e-06     4.447235132e-06
                   3                   3    -9.406329091e-06     6.926782112e-06     2.479546979e-06     3.476412607e-06    -1.252001509e-06     4.447235132e-06
                   3                   4    -8.571661418e-06     7.761449784e-06     8.102116344e-07     3.614263501e-05    -1.252001509e-06      6.95123815e-06
                   3                   5     8.571661418e-06    -7.761449784e-06    -8.102116344e-07     3.614263501e-05    -1.252001509e-06     -6.95123815e-06
                   3                   6     9.406329091e-06    -6.926782112e-06    -2.479546979e-06     3.476412607e-06    -1.252001509e-06    -4.447235132e-06
                   3                   7    -9.406329091e-06     6.926782112e-06     2.479546979e-06     3.476412607e-06     1.252001509e-06    -4.447235132e-06
                   3                   8    -8.571661418e-06     7.761449784e-06     8.102116344e-07     3.614263501e-05     1.252001509e-06     -6.95123815e-06

***** Plastic Strain Data ******
          Element No         Integral No          PStrain XX          PStrain YY          PStrain ZZ          PStrain XY          PStrain XZ          PStrain YZ
                   1                   1                   0                   0                   0                   0                   0                   0
                   1                   2                   0                   0                   0                   0                   0                   0
                   1                   3                   0                   0                   0                   0                   0                   0
                   1                   4                   0                   0                   0                   0                   0                   0
                   1                   5                   0                   0                   0                   0                   0                   0
                   1                   6                   0                   0                   0                   0                   0                   0
                   1                   7                   0                   0                   0                   0                   0                   0
                   1                   8                   0                   0                   0                   0                   0                   0
                   2                   1                   0                   0                   0                   0                   0                   0
                   2                   2                   0                   0                   0                   0                   0                   0
                   2                   3                   0                   0                   0                   0                   0                   0
                   2                   4                   0                   0                   0                   0                   0                   0
                   2                   5                   0                   0                   0                   0                   0                   0
                   2                   6                   0                   0                   0                   0                   0                   0
                   2                   7                   0                   0                   0                   0                   0                   0
                   2                   8                   0                   0                   0                   0                   0                   0
                   3                   1                   0                   0                   0                   0                   0                   0
                   3                   2                   0                   0                   0                   0                   0                   0
                   3                   3                   0                   0                   0                   0                   0                   0
                   3                   4                   0                   0                   0                   0                   0                   0
                   3                   5                   0                   0                   0                   0                   0                   0
                   3                   6                   0                   0                   0                   0                   0                   0
                   3                   7                   0                   0                   0                   0                   0                   0
                   3                   8                   0                   0                   0                   0                   0                   0

***** Reaction Force Data ******
              NodeNo           Magnitude             X Force             Y Force             Z Force----------------------------------------------------------------------------------------------------
                   1         2.471505752                -2.4                -0.4        0.4339823537
                   2     2.394873561e-15     1.776356839e-15    -4.996003611e-16    -1.526556659e-15
                   3      8.28310097e-15     6.883382753e-15     4.607425552e-15     2.081668171e-17
                   4     5.098729613e-15    -2.491062912e-15     1.665334537e-16     4.445662588e-15
                   5         2.471505752                -2.4                -0.4       -0.4339823537
                   6     8.955894642e-15     2.664535259e-15     8.160139231e-15     2.553512957e-15
                   7     4.465246969e-15     2.220446049e-16    -4.440892099e-15     4.093947403e-16
                   8      7.62912708e-15     8.049116929e-16     7.494005416e-15    -1.181346687e-15
                   9         2.471505752                 2.4                -0.4       -0.4339823537
                  10     1.424215369e-15     1.110223025e-15     8.881784197e-16    -8.326672685e-17
                  11     5.769038289e-15     4.551914401e-15     3.441691376e-15    -8.465450563e-16
                  12     5.943077325e-15    -3.778227731e-15    -4.329869796e-15     1.515714637e-15
                  13         2.471505752                 2.4                -0.4        0.4339823537
                  14     1.449680915e-15     -1.33226763e-15    -4.996003611e-16    -2.775557562e-16
                  15     1.215077991e-14    -1.110223025e-15    -1.088018564e-14    -5.294376049e-15
                  16      7.33428895e-15     3.684552663e-15     -6.32827124e-15     4.109126234e-16

*Increment 5

***** Displacement Data ******
              NodeNo           Magnitude      X Displacement      Y Displacement      Z Displacement
----------------------------------------------------------------------------------------------------
                   1                   0                   0                   0                   0
                   2     0.0002544373457     0.0001662523361     0.0001910142409     -2.47403192e-05
                   3     0.0007074241936     0.0002712646621     0.0006532931438     -8.51710747e-06
                   4       0.00129284048     0.0003066268851      0.001255946596    -3.822101813e-06
                   5                   0                   0                   0                   0
                   6     0.0002544373457     0.0001662523361     0.0001910142409      2.47403192e-05
                   7     0.0007074241936     0.0002712646621     0.0006532931438      8.51710747e-06
                   8       0.00129284048     0.0003066268851      0.001255946596     3.822101813e-06
                   9                   0                   0                   0                   0
                  10     0.0002544373457    -0.0001662523361     0.0001910142409      2.47403192e-05
                  11     0.0007074241936    -0.0002712646621     0.0006532931438      8.51710747e-06
                  12       0.00129284048    -0.0003066268851      0.001255946596     3.822101813e-06
                  13                   0                   0                   0                   0
                  14     0.0002544373457    -0.0001662523361     0.0001910142409     -2.47403192e-05
                  15     0.0007074241936    -0.0002712646621     0.0006532931438     -8.51710747e-06
                  16       0.00129284048    -0.0003066268851      0.001255946596    -3.822101813e-06

***** Stress Data ******
          Element No         Integral No           Stress XX           Stress YY           Stress ZZ           Stress XY           Stress XZ           Stress YZ               Mises            YieldFlg
                   1                   1         10.01186335        -5.493540117        -4.518323236         9.752701735       -0.6660855169        0.4876084406         22.66356818               False
                   1                   2          9.12374933        -6.381654139        -2.742095191        -5.752701735       -0.6660855169         1.819779474         17.54359227               False
                   1                   3         -9.12374933         6.381654139         2.742095191        -5.752701735        0.6660855169         1.819779474         17.54359227               False
                   1                   4        -10.01186335         5.493540117         4.518323236         9.752701735        0.6660855169        0.4876084406         22.66356818               False
                   1                   5         10.01186335        -5.493540117        -4.518323236         9.752701735        0.6660855169       -0.4876084406         22.66356818               False
                   1                   6          9.12374933        -6.381654139        -2.742095191        -5.752701735        0.6660855169        -1.819779474         17.54359227               False
                   1                   7         -9.12374933         6.381654139         2.742095191        -5.752701735       -0.6660855169        -1.819779474         17.54359227               False
                   1                   8        -10.01186335         5.493540117         4.518323236         9.752701735       -0.6660855169       -0.4876084406         22.66356818               False
                   2                   1         5.204169808        -4.589728562        -0.614441246         6.896949185        0.4367787773         1.987643658         15.09695426               False
                   2                   2         5.786541512        -4.007356859        -1.779184652        -2.896949185        0.4367787773         1.114086104         10.41803911               False
                   2                   3        -5.786541512         4.007356859         1.779184652        -2.896949185       -0.4367787773         1.114086104         10.41803911               False
                   2                   4        -5.204169808         4.589728562         0.614441246         6.896949185       -0.4367787773         1.987643658         15.09695426               False
                   2                   5         5.204169808        -4.589728562        -0.614441246         6.896949185       -0.4367787773        -1.987643658         15.09695426               False
                   2                   6         5.786541512        -4.007356859        -1.779184652        -2.896949185       -0.4367787773        -1.114086104         10.41803911               False
                   2                   7        -5.786541512         4.007356859         1.779184652        -2.896949185        0.4367787773        -1.114086104         10.41803911               False
                   2                   8        -5.204169808         4.589728562         0.614441246         6.896949185        0.4367787773        -1.987643658         15.09695426               False
                   3                   1         1.730816248        -1.567215822       -0.1636004262         3.649016035        0.1264039985        0.7018076978         7.049076056               False
                   3                   2         1.899354913        -1.398677157       -0.5006777555        0.3509839651        0.1264039985        0.4489997008         3.121552974               False
                   3                   3        -1.899354913         1.398677157        0.5006777555        0.3509839651       -0.1264039985        0.4489997008         3.121552974               False
                   3                   4        -1.730816248         1.567215822        0.1636004262         3.649016035       -0.1264039985        0.7018076978         7.049076056               False
                   3                   5         1.730816248        -1.567215822       -0.1636004262         3.649016035       -0.1264039985       -0.7018076978         7.049076056               False
                   3                   6         1.899354913        -1.398677157       -0.5006777555        0.3509839651       -0.1264039985       -0.4489997008         3.121552974               False
                   3                   7        -1.899354913         1.398677157        0.5006777555        0.3509839651        0.1264039985       -0.4489997008         3.121552974               False
                   3                   8        -1.730816248         1.567215822        0.1636004262         3.649016035        0.1264039985       -0.7018076978         7.049076056               False

***** Strain Data ******
          Element No         Integral No           Strain XX           Strain YY           Strain ZZ           Strain XY           Strain XZ           Strain YZ
                   1                   1     6.197820171e-05    -3.400762929e-05    -2.797057241e-05     0.0001207477358    -8.246773066e-06     6.037056883e-06
                   1                   2     5.648035299e-05    -3.950547801e-05    -1.697487499e-05    -7.122392624e-05    -8.246773066e-06     2.253060302e-05
                   1                   3    -5.648035299e-05     3.950547801e-05     1.697487499e-05    -7.122392624e-05     8.246773066e-06     2.253060302e-05
                   1                   4    -6.197820171e-05     3.400762929e-05     2.797057241e-05     0.0001207477358     8.246773066e-06     6.037056883e-06
                   1                   5     6.197820171e-05    -3.400762929e-05    -2.797057241e-05     0.0001207477358     8.246773066e-06    -6.037056883e-06
                   1                   6     5.648035299e-05    -3.950547801e-05    -1.697487499e-05    -7.122392624e-05     8.246773066e-06    -2.253060302e-05
                   1                   7    -5.648035299e-05     3.950547801e-05     1.697487499e-05    -7.122392624e-05    -8.246773066e-06    -2.253060302e-05
                   1                   8    -6.197820171e-05     3.400762929e-05     2.797057241e-05     0.0001207477358    -8.246773066e-06    -6.037056883e-06
                   2                   1     3.221628929e-05    -2.841260539e-05    -3.803683904e-06     8.539079944e-05     5.407737243e-06     2.460892148e-05
                   2                   2     3.582144745e-05    -2.480744722e-05    -1.101400023e-05    -3.586698991e-05     5.407737243e-06       1.3793447e-05
                   2                   3    -3.582144745e-05     2.480744722e-05     1.101400023e-05    -3.586698991e-05    -5.407737243e-06       1.3793447e-05
                   2                   4    -3.221628929e-05     2.841260539e-05     3.803683904e-06     8.539079944e-05    -5.407737243e-06     2.460892148e-05
                   2                   5     3.221628929e-05    -2.841260539e-05    -3.803683904e-06     8.539079944e-05    -5.407737243e-06    -2.460892148e-05
                   2                   6     3.582144745e-05    -2.480744722e-05    -1.101400023e-05    -3.586698991e-05    -5.407737243e-06      -1.3793447e-05
                   2                   7    -3.582144745e-05     2.480744722e-05     1.101400023e-05    -3.586698991e-05     5.407737243e-06      -1.3793447e-05
                   2                   8    -3.221628929e-05     2.841260539e-05     3.803683904e-06     8.539079944e-05     5.407737243e-06    -2.460892148e-05
                   3                   1     1.071457677e-05     -9.70181223e-06    -1.012764543e-06     4.517829376e-05     1.565001886e-06     8.689047687e-06
                   3                   2     1.175791136e-05    -8.658477639e-06    -3.099433724e-06     4.345515759e-06     1.565001886e-06     5.559043915e-06
                   3                   3    -1.175791136e-05     8.658477639e-06     3.099433724e-06     4.345515759e-06    -1.565001886e-06     5.559043915e-06
                   3                   4    -1.071457677e-05      9.70181223e-06     1.012764543e-06     4.517829376e-05    -1.565001886e-06     8.689047687e-06
                   3                   5     1.071457677e-05     -9.70181223e-06    -1.012764543e-06     4.517829376e-05    -1.565001886e-06    -8.689047687e-06
                   3                   6     1.175791136e-05    -8.658477639e-06    -3.099433724e-06     4.345515759e-06    -1.565001886e-06    -5.559043915e-06
                   3                   7    -1.175791136e-05     8.658477639e-06     3.099433724e-06     4.345515759e-06     1.565001886e-06    -5.559043915e-06
                   3                   8    -1.071457677e-05      9.70181223e-06     1.012764543e-06     4.517829376e-05     1.565001886e-06    -8.689047687e-06

***** Plastic Strain Data ******
          Element No         Integral No          PStrain XX          PStrain YY          PStrain ZZ          PStrain XY          PStrain XZ          PStrain YZ
                   1                   1                   0                   0                   0                   0                   0                   0
                   1                   2                   0                   0                   0                   0                   0                   0
                   1                   3                   0                   0                   0                   0                   0                   0
                   1                   4                   0                   0                   0                   0                   0                   0
                   1                   5                   0                   0                   0                   0                   0                   0
                   1                   6                   0                   0                   0                   0                   0                   0
                   1                   7                   0                   0                   0                   0                   0                   0
                   1                   8                   0                   0                   0                   0                   0                   0
                   2                   1                   0                   0                   0                   0                   0                   0
                   2                   2                   0                   0                   0                   0                   0                   0
                   2                   3                   0                   0                   0                   0                   0                   0
                   2                   4                   0                   0                   0                   0                   0                   0
                   2                   5                   0                   0                   0                   0                   0                   0
                   2                   6                   0                   0                   0                   0                   0                   0
                   2                   7                   0                   0                   0                   0                   0                   0
                   2                   8                   0                   0                   0                   0                   0                   0
                   3                   1                   0                   0                   0                   0                   0                   0
                   3                   2                   0                   0                   0                   0                   0                   0
                   3                   3                   0                   0                   0                   0                   0                   0
                   3                   4                   0                   0                   0                   0                   0                   0
                   3                   5                   0                   0                   0                   0                   0                   0
                   3                   6                   0                   0                   0                   0                   0                   0
                   3                   7                   0                   0                   0                   0                   0                   0
                   3                   8                   0                   0                   0                   0                   0                   0

***** Reaction Force Data ******
              NodeNo           Magnitude             X Force             Y Force             Z Force----------------------------------------------------------------------------------------------------
                   1          3.08938219                  -3                -0.5        0.5424779421
                   2     3.255931324e-15     2.220446049e-15     2.220446049e-15    -8.604228441e-16
                   3     1.295505429e-14     6.994405055e-15     1.082467449e-14     1.318389842e-15
                   4     9.772455819e-15    -5.183353746e-15     4.551914401e-15      6.92198035e-15
                   5          3.08938219                  -3                -0.5       -0.5424779421
                   6     1.371305217e-14     3.108624469e-15      1.33226763e-14     9.436895709e-16
                   7     5.146096298e-15     3.552713679e-15    -3.497202528e-15    -1.276756478e-15
                   8      1.06197459e-14    -3.233524559e-15     8.992806499e-15    -4.631711681e-15
                   9          3.08938219                   3                -0.5       -0.5424779421
                  10      3.55964581e-15     2.664535259e-15    -1.554312234e-15     1.776356839e-15
                  11     8.621580562e-15     6.661338148e-15    -4.385380947e-15     3.275157923e-15
                  12     1.085067194e-14    -4.597017211e-15    -8.715250743e-15     4.544108145e-15
                  13          3.08938219                   3                -0.5        0.5424779421
                  14     3.412920202e-15    -1.110223025e-15    -2.442490654e-15    -2.109423747e-15
                  15     1.711513874e-14     -1.33226763e-15    -1.454392162e-14     -8.92341756e-15
                  16     7.018199125e-15     1.484923295e-15    -6.661338148e-15    -1.636061078e-15

*Increment 6

***** Displacement Data ******
              NodeNo           Magnitude      X Displacement      Y Displacement      Z Displacement
----------------------------------------------------------------------------------------------------
                   1                   0                   0                   0                   0
                   2     0.0003053248148     0.0001995028033      0.000229217089    -2.968838304e-05
                   3     0.0008489090324     0.0003255175945     0.0007839517726    -1.022052896e-05
                   4      0.001551408576     0.0003679522622      0.001507135915    -4.586522175e-06
                   5                   0                   0                   0                   0
                   6     0.0003053248148     0.0001995028033      0.000229217089     2.968838304e-05
                   7     0.0008489090324     0.0003255175945     0.0007839517726     1.022052896e-05
                   8      0.001551408576     0.0003679522622      0.001507135915     4.586522175e-06
                   9                   0                   0                   0                   0
                  10     0.0003053248148    -0.0001995028033      0.000229217089     2.968838304e-05
                  11     0.0008489090324    -0.0003255175945     0.0007839517726     1.022052896e-05
                  12      0.001551408576    -0.0003679522622      0.001507135915     4.586522175e-06
                  13                   0                   0                   0                   0
                  14     0.0003053248148    -0.0001995028033      0.000229217089    -2.968838304e-05
                  15     0.0008489090324    -0.0003255175945     0.0007839517726    -1.022052896e-05
                  16      0.001551408576    -0.0003679522622      0.001507135915    -4.586522175e-06

***** Stress Data ******
          Element No         Integral No           Stress XX           Stress YY           Stress ZZ           Stress XY           Stress XZ           Stress YZ               Mises            YieldFlg
                   1                   1         12.01423602         -6.59224814        -5.421987883         11.70324208       -0.7993026203        0.5851301287         27.19628181               False
                   1                   2          10.9484992        -7.657984967        -3.290514229        -6.903242081       -0.7993026203         2.183735369         21.05231072               False
                   1                   3         -10.9484992         7.657984967         3.290514229        -6.903242081        0.7993026203         2.183735369         21.05231072               False
                   1                   4        -12.01423602          6.59224814         5.421987883         11.70324208        0.7993026203        0.5851301287         27.19628181               False
                   1                   5         12.01423602         -6.59224814        -5.421987883         11.70324208        0.7993026203       -0.5851301287         27.19628181               False
                   1                   6          10.9484992        -7.657984967        -3.290514229        -6.903242081        0.7993026203        -2.183735369         21.05231072               False
                   1                   7         -10.9484992         7.657984967         3.290514229        -6.903242081       -0.7993026203        -2.183735369         21.05231072               False
                   1                   8        -12.01423602          6.59224814         5.421987883         11.70324208       -0.7993026203       -0.5851301287         27.19628181               False
                   2                   1          6.24500377        -5.507674275       -0.7373294952         8.276339023        0.5241345328          2.38517239         18.11634511               False
                   2                   2         6.943849814        -4.808828231        -2.135021583        -3.476339023        0.5241345328         1.336903324         12.50164693               False
                   2                   3        -6.943849814         4.808828231         2.135021583        -3.476339023       -0.5241345328         1.336903324         12.50164693               False
                   2                   4         -6.24500377         5.507674275        0.7373294952         8.276339023       -0.5241345328          2.38517239         18.11634511               False
                   2                   5          6.24500377        -5.507674275       -0.7373294952         8.276339023       -0.5241345328         -2.38517239         18.11634511               False
                   2                   6         6.943849814        -4.808828231        -2.135021583        -3.476339023       -0.5241345328        -1.336903324         12.50164693               False
                   2                   7        -6.943849814         4.808828231         2.135021583        -3.476339023        0.5241345328        -1.336903324         12.50164693               False
                   2                   8         -6.24500377         5.507674275        0.7373294952         8.276339023        0.5241345328         -2.38517239         18.11634511               False
                   3                   1         2.076979498        -1.880658986       -0.1963205114         4.378819242        0.1516847982        0.8421692374         8.458891267               False
                   3                   2         2.279225895        -1.678412589       -0.6008133066        0.4211807582        0.1516847982         0.538799641         3.745863569               False
                   3                   3        -2.279225895         1.678412589        0.6008133066        0.4211807582       -0.1516847982         0.538799641         3.745863569               False
                   3                   4        -2.076979498         1.880658986        0.1963205114         4.378819242       -0.1516847982        0.8421692374         8.458891267               False
                   3                   5         2.076979498        -1.880658986       -0.1963205114         4.378819242       -0.1516847982       -0.8421692374         8.458891267               False
                   3                   6         2.279225895        -1.678412589       -0.6008133066        0.4211807582       -0.1516847982        -0.538799641         3.745863569               False
                   3                   7        -2.279225895         1.678412589        0.6008133066        0.4211807582        0.1516847982        -0.538799641         3.745863569               False
                   3                   8        -2.076979498         1.880658986        0.1963205114         4.378819242        0.1516847982       -0.8421692374         8.458891267               False

***** Strain Data ******
          Element No         Integral No           Strain XX           Strain YY           Strain ZZ           Strain XY           Strain XZ           Strain YZ
                   1                   1     7.437384205e-05    -4.080915515e-05    -3.356468689e-05     0.0001448972829     -9.89612768e-06      7.24446826e-06
                   1                   2     6.777642359e-05    -4.740657361e-05    -2.036984999e-05    -8.546871148e-05     -9.89612768e-06     2.703672362e-05
                   1                   3    -6.777642359e-05     4.740657361e-05     2.036984999e-05    -8.546871148e-05      9.89612768e-06     2.703672362e-05
                   1                   4    -7.437384205e-05     4.080915515e-05     3.356468689e-05     0.0001448972829      9.89612768e-06      7.24446826e-06
                   1                   5     7.437384205e-05    -4.080915515e-05    -3.356468689e-05     0.0001448972829      9.89612768e-06     -7.24446826e-06
                   1                   6     6.777642359e-05    -4.740657361e-05    -2.036984999e-05    -8.546871148e-05      9.89612768e-06    -2.703672362e-05
                   1                   7    -6.777642359e-05     4.740657361e-05     2.036984999e-05    -8.546871148e-05     -9.89612768e-06    -2.703672362e-05
                   1                   8    -7.437384205e-05     4.080915515e-05     3.356468689e-05     0.0001448972829     -9.89612768e-06     -7.24446826e-06
                   2                   1     3.865954715e-05    -3.409512646e-05    -4.564420684e-06     0.0001024689593     6.489284691e-06     2.953070578e-05
                   2                   2     4.298573694e-05    -2.976893667e-05    -1.321680027e-05     -4.30403879e-05     6.489284691e-06      1.65521364e-05
                   2                   3    -4.298573694e-05     2.976893667e-05     1.321680027e-05     -4.30403879e-05    -6.489284691e-06      1.65521364e-05
                   2                   4    -3.865954715e-05     3.409512646e-05     4.564420684e-06     0.0001024689593    -6.489284691e-06     2.953070578e-05
                   2                   5     3.865954715e-05    -3.409512646e-05    -4.564420684e-06     0.0001024689593    -6.489284691e-06    -2.953070578e-05
                   2                   6     4.298573694e-05    -2.976893667e-05    -1.321680027e-05     -4.30403879e-05    -6.489284691e-06     -1.65521364e-05
                   2                   7    -4.298573694e-05     2.976893667e-05     1.321680027e-05     -4.30403879e-05     6.489284691e-06     -1.65521364e-05
                   2                   8    -3.865954715e-05     3.409512646e-05     4.564420684e-06     0.0001024689593     6.489284691e-06    -2.953070578e-05
                   3                   1     1.285749213e-05    -1.164217468e-05    -1.215317452e-06     5.421395252e-05     1.878002263e-06     1.042685722e-05
                   3                   2     1.410949364e-05    -1.039017317e-05    -3.719320469e-06     5.214618911e-06     1.878002263e-06     6.670852698e-06
                   3                   3    -1.410949364e-05     1.039017317e-05     3.719320469e-06     5.214618911e-06    -1.878002263e-06     6.670852698e-06
                   3                   4    -1.285749213e-05     1.164217468e-05     1.215317452e-06     5.421395252e-05    -1.878002263e-06     1.042685722e-05
                   3                   5     1.285749213e-05    -1.164217468e-05    -1.215317452e-06     5.421395252e-05    -1.878002263e-06    -1.042685722e-05
                   3                   6     1.410949364e-05    -1.039017317e-05    -3.719320469e-06     5.214618911e-06    -1.878002263e-06    -6.670852698e-06
                   3                   7    -1.410949364e-05     1.039017317e-05     3.719320469e-06     5.214618911e-06     1.878002263e-06    -6.670852698e-06
                   3                   8    -1.285749213e-05     1.164217468e-05     1.215317452e-06     5.421395252e-05     1.878002263e-06    -1.042685722e-05

***** Plastic Strain Data ******
          Element No         Integral No          PStrain XX          PStrain YY          PStrain ZZ          PStrain XY          PStrain XZ          PStrain YZ
                   1                   1                   0                   0                   0                   0                   0                   0
                   1                   2                   0                   0                   0                   0                   0                   0
                   1                   3                   0                   0                   0                   0                   0                   0
                   1                   4                   0                   0                   0                   0                   0                   0
                   1                   5                   0                   0                   0                   0                   0                   0
                   1                   6                   0                   0                   0                   0                   0                   0
                   1                   7                   0                   0                   0                   0                   0                   0
                   1                   8                   0                   0                   0                   0                   0                   0
                   2                   1                   0                   0                   0                   0                   0                   0
                   2                   2                   0                   0                   0                   0                   0                   0
                   2                   3                   0                   0                   0                   0                   0                   0
                   2                   4                   0                   0                   0                   0                   0                   0
                   2                   5                   0                   0                   0                   0                   0                   0
                   2                   6                   0                   0                   0                   0                   0                   0
                   2                   7                   0                   0                   0                   0                   0                   0
                   2                   8                   0                   0                   0                   0                   0                   0
                   3                   1                   0                   0                   0                   0                   0                   0
                   3                   2                   0                   0                   0                   0                   0                   0
                   3                   3                   0                   0                   0                   0                   0                   0
                   3                   4                   0                   0                   0                   0                   0                   0
                   3                   5                   0                   0                   0                   0                   0                   0
                   3                   6                   0                   0                   0                   0                   0                   0
                   3                   7                   0                   0                   0                   0                   0                   0
                   3                   8                   0                   0                   0                   0                   0                   0

***** Reaction Force Data ******
              NodeNo           Magnitude             X Force             Y Force             Z Force----------------------------------------------------------------------------------------------------
                   1         3.707258628                -3.6                -0.6        0.6509735305
                   2     5.180412939e-15    -1.776356839e-15    -2.109423747e-15    -4.385380947e-15
                   3     1.195135394e-14     1.088018564e-14     4.773959006e-15     1.290634266e-15
                   4     7.327671192e-15    -1.484923295e-15     2.775557562e-15     6.617102699e-15
                   5         3.707258628                -3.6                -0.6       -0.6509735305
                   6     1.143479188e-14     -1.33226763e-15     1.099120794e-14     2.858824288e-15
                   7      8.63412566e-15     5.773159728e-15     -6.32827124e-15    -1.082467449e-15
                   8     1.357372514e-14     9.714451465e-16     1.232347557e-14    -5.606626274e-15
                   9         3.707258628                 3.6                -0.6       -0.6509735305
                  10     2.510307307e-15      1.33226763e-15     2.109423747e-15     2.775557562e-16
                  11     1.172429978e-14     9.325873407e-15     6.883382753e-15     1.762479052e-15
                  12     1.599101936e-14    -7.799316748e-15    -1.310063169e-14     4.822531263e-15
                  13         3.707258628                 3.6                -0.6        0.6509735305
                  14     2.488113585e-15    -2.220446049e-15     1.110223025e-15     1.665334537e-16
                  15     1.340730056e-14    -8.881784197e-16    -1.054711873e-14     -8.22952817e-15
                  16     1.087301836e-14     1.471045508e-15    -1.076916334e-14     2.892651396e-16

*Increment 7

***** Displacement Data ******
              NodeNo           Magnitude      X Displacement      Y Displacement      Z Displacement
----------------------------------------------------------------------------------------------------
                   1                   0                   0                   0                   0
                   2     0.0003562122839     0.0002327532705     0.0002674199372    -3.463644688e-05
                   3     0.0009903938711     0.0003797705269     0.0009146104013    -1.192395046e-05
                   4      0.001809976672     0.0004292776392      0.001758325234    -5.350942538e-06
                   5                   0                   0                   0                   0
                   6     0.0003562122839     0.0002327532705     0.0002674199372     3.463644688e-05
                   7     0.0009903938711     0.0003797705269     0.0009146104013     1.192395046e-05
                   8      0.001809976672     0.0004292776392      0.001758325234     5.350942538e-06
                   9                   0                   0                   0                   0
                  10     0.0003562122839    -0.0002327532705     0.0002674199372     3.463644688e-05
                  11     0.0009903938711    -0.0003797705269     0.0009146104013     1.192395046e-05
                  12      0.001809976672    -0.0004292776392      0.001758325234     5.350942538e-06
                  13                   0                   0                   0                   0
                  14     0.0003562122839    -0.0002327532705     0.0002674199372    -3.463644688e-05
                  15     0.0009903938711    -0.0003797705269     0.0009146104013    -1.192395046e-05
                  16      0.001809976672    -0.0004292776392      0.001758325234    -5.350942538e-06

***** Stress Data ******
          Element No         Integral No           Stress XX           Stress YY           Stress ZZ           Stress XY           Stress XZ           Stress YZ               Mises            YieldFlg
                   1                   1         14.01660869        -7.690956163         -6.32565253         13.65378243       -0.9325197237        0.6826518168         31.72899545               False
                   1                   2         12.77324906        -8.934315795        -3.838933267        -8.053782428       -0.9325197237         2.547691264         24.56102917               False
                   1                   3        -12.77324906         8.934315795         3.838933267        -8.053782428        0.9325197237         2.547691264         24.56102917               False
                   1                   4        -14.01660869         7.690956163          6.32565253         13.65378243        0.9325197237        0.6826518168         31.72899545               False
                   1                   5         14.01660869        -7.690956163         -6.32565253         13.65378243        0.9325197237       -0.6826518168         31.72899545               False
                   1                   6         12.77324906        -8.934315795        -3.838933267        -8.053782428        0.9325197237        -2.547691264         24.56102917               False
                   1                   7        -12.77324906         8.934315795         3.838933267        -8.053782428       -0.9325197237        -2.547691264         24.56102917               False
                   1                   8        -14.01660869         7.690956163          6.32565253         13.65378243       -0.9325197237       -0.6826518168         31.72899545               False
                   2                   1         7.285837732        -6.425619987       -0.8602177444          9.65572886        0.6114902882         2.782701122         21.13573596               False
                   2                   2         8.101158116        -5.610299603        -2.490858513         -4.05572886        0.6114902882         1.559720545         14.58525476               False
                   2                   3        -8.101158116         5.610299603         2.490858513         -4.05572886       -0.6114902882         1.559720545         14.58525476               False
                   2                   4        -7.285837732         6.425619987        0.8602177444          9.65572886       -0.6114902882         2.782701122         21.13573596               False
                   2                   5         7.285837732        -6.425619987       -0.8602177444          9.65572886       -0.6114902882        -2.782701122         21.13573596               False
                   2                   6         8.101158116        -5.610299603        -2.490858513         -4.05572886       -0.6114902882        -1.559720545         14.58525476               False
                   2                   7        -8.101158116         5.610299603         2.490858513         -4.05572886        0.6114902882        -1.559720545         14.58525476               False
                   2                   8        -7.285837732         6.425619987        0.8602177444          9.65572886        0.6114902882        -2.782701122         21.13573596               False
                   3                   1         2.423142747         -2.19410215       -0.2290405967         5.108622449        0.1769655979        0.9825307769         9.868706478               False
                   3                   2         2.659096878         -1.95814802       -0.7009488576        0.4913775512        0.1769655979        0.6285995812         4.370174164               False
                   3                   3        -2.659096878          1.95814802        0.7009488576        0.4913775512       -0.1769655979        0.6285995812         4.370174164               False
                   3                   4        -2.423142747          2.19410215        0.2290405967         5.108622449       -0.1769655979        0.9825307769         9.868706478               False
                   3                   5         2.423142747         -2.19410215       -0.2290405967         5.108622449       -0.1769655979       -0.9825307769         9.868706478               False
                   3                   6         2.659096878         -1.95814802       -0.7009488576        0.4913775512       -0.1769655979       -0.6285995812         4.370174164               False
                   3                   7        -2.659096878          1.95814802        0.7009488576        0.4913775512        0.1769655979       -0.6285995812         4.370174164               False
                   3                   8        -2.423142747          2.19410215        0.2290405967         5.108622449        0.1769655979       -0.9825307769         9.868706478               False

***** Strain Data ******
          Element No         Integral No           Strain XX           Strain YY           Strain ZZ           Strain XY           Strain XZ           Strain YZ
                   1                   1     8.676948239e-05    -4.761068101e-05    -3.915880138e-05     0.0001690468301    -1.154548229e-05     8.451879636e-06
                   1                   2     7.907249419e-05    -5.530766921e-05    -2.376482499e-05    -9.971349673e-05    -1.154548229e-05     3.154284422e-05
                   1                   3    -7.907249419e-05     5.530766921e-05     2.376482499e-05    -9.971349673e-05     1.154548229e-05     3.154284422e-05
                   1                   4    -8.676948239e-05     4.761068101e-05     3.915880138e-05     0.0001690468301     1.154548229e-05     8.451879636e-06
                   1                   5     8.676948239e-05    -4.761068101e-05    -3.915880138e-05     0.0001690468301     1.154548229e-05    -8.451879636e-06
                   1                   6     7.907249419e-05    -5.530766921e-05    -2.376482499e-05    -9.971349673e-05     1.154548229e-05    -3.154284422e-05
                   1                   7    -7.907249419e-05     5.530766921e-05     2.376482499e-05    -9.971349673e-05    -1.154548229e-05    -3.154284422e-05
                   1                   8    -8.676948239e-05     4.761068101e-05     3.915880138e-05     0.0001690468301    -1.154548229e-05    -8.451879636e-06
                   2                   1     4.510280501e-05    -3.977764754e-05    -5.325157465e-06     0.0001195471192      7.57083214e-06     3.445249008e-05
                   2                   2     5.015002643e-05    -3.473042611e-05    -1.541960032e-05    -5.021378588e-05      7.57083214e-06      1.93108258e-05
                   2                   3    -5.015002643e-05     3.473042611e-05     1.541960032e-05    -5.021378588e-05     -7.57083214e-06      1.93108258e-05
                   2                   4    -4.510280501e-05     3.977764754e-05     5.325157465e-06     0.0001195471192     -7.57083214e-06     3.445249008e-05
                   2                   5     4.510280501e-05    -3.977764754e-05    -5.325157465e-06     0.0001195471192     -7.57083214e-06    -3.445249008e-05
                   2                   6     5.015002643e-05    -3.473042611e-05    -1.541960032e-05    -5.021378588e-05     -7.57083214e-06     -1.93108258e-05
                   2                   7    -5.015002643e-05     3.473042611e-05     1.541960032e-05    -5.021378588e-05      7.57083214e-06     -1.93108258e-05
                   2                   8    -4.510280501e-05     3.977764754e-05     5.325157465e-06     0.0001195471192      7.57083214e-06    -3.445249008e-05
                   3                   1     1.500040748e-05    -1.358253712e-05     -1.41787036e-06     6.324961127e-05      2.19100264e-06     1.216466676e-05
                   3                   2     1.646107591e-05     -1.21218687e-05    -4.339207214e-06     6.083722062e-06      2.19100264e-06     7.782661481e-06
                   3                   3    -1.646107591e-05      1.21218687e-05     4.339207214e-06     6.083722062e-06     -2.19100264e-06     7.782661481e-06
                   3                   4    -1.500040748e-05     1.358253712e-05      1.41787036e-06     6.324961127e-05     -2.19100264e-06     1.216466676e-05
                   3                   5     1.500040748e-05    -1.358253712e-05     -1.41787036e-06     6.324961127e-05     -2.19100264e-06    -1.216466676e-05
                   3                   6     1.646107591e-05     -1.21218687e-05    -4.339207214e-06     6.083722062e-06     -2.19100264e-06    -7.782661481e-06
                   3                   7    -1.646107591e-05      1.21218687e-05     4.339207214e-06     6.083722062e-06      2.19100264e-06    -7.782661481e-06
                   3                   8    -1.500040748e-05     1.358253712e-05      1.41787036e-06     6.324961127e-05      2.19100264e-06    -1.216466676e-05

***** Plastic Strain Data ******
          Element No         Integral No          PStrain XX          PStrain YY          PStrain ZZ          PStrain XY          PStrain XZ          PStrain YZ
                   1                   1                   0                   0                   0                   0                   0                   0
                   1                   2                   0                   0                   0                   0                   0                   0
                   1                   3                   0                   0                   0                   0                   0                   0
                   1                   4                   0                   0                   0                   0                   0                   0
                   1                   5                   0                   0                   0                   0                   0                   0
                   1                   6                   0                   0                   0                   0                   0                   0
                   1                   7                   0                   0                   0                   0                   0                   0
                   1                   8                   0                   0                   0                   0                   0                   0
                   2                   1                   0                   0                   0                   0                   0                   0
                   2                   2                   0                   0                   0                   0                   0                   0
                   2                   3                   0                   0                   0                   0                   0                   0
                   2                   4                   0                   0                   0                   0                   0                   0
                   2                   5                   0                   0                   0                   0                   0                   0
                   2                   6                   0                   0                   0                   0                   0                   0
                   2                   7                   0                   0                   0                   0                   0                   0
                   2                   8                   0                   0                   0                   0                   0                   0
                   3                   1                   0                   0                   0                   0                   0                   0
                   3                   2                   0                   0                   0                   0                   0                   0
                   3                   3                   0                   0                   0                   0                   0                   0
                   3                   4                   0                   0                   0                   0                   0                   0
                   3                   5                   0                   0                   0                   0                   0                   0
                   3                   6                   0                   0                   0                   0                   0                   0
                   3                   7                   0                   0                   0                   0                   0                   0
                   3                   8                   0                   0                   0                   0                   0                   0

***** Reaction Force Data ******
              NodeNo           Magnitude             X Force             Y Force             Z Force----------------------------------------------------------------------------------------------------
                   1         4.325135066                -4.2                -0.7        0.7594691189
                   2     2.310391186e-15      1.33226763e-15    -5.551115123e-16    -1.804112415e-15
                   3     2.442597889e-14     1.509903313e-14     1.842970221e-14     5.384581669e-15
                   4     1.312233187e-14    -4.919675778e-15     7.549516567e-15     9.539244394e-15
                   5         4.325135066                -4.2                -0.7       -0.7594691189
                   6     1.480067208e-14     2.664535259e-15     1.421085472e-14      3.16413562e-15
                   7     1.299198885e-14     3.108624469e-15     9.769962617e-15    -7.979727989e-15
                   8     2.763607368e-14    -3.302913498e-15     2.475797345e-14    -1.182734466e-14
                   9         4.325135066                 4.2                -0.7       -0.7594691189
                  10     5.916561727e-15     5.773159728e-15    -6.661338148e-16     1.110223025e-15
                  11     1.648125636e-14     1.221245327e-14    -3.219646771e-15      1.05887521e-14
                  12     2.920491503e-14    -1.240327285e-14    -2.442490654e-14     1.012471357e-14
                  13         4.325135066                 4.2                -0.7        0.7594691189
                  14     4.917125636e-15     8.881784197e-16    -4.440892099e-15    -1.915134717e-15
                  15     2.734551444e-14     2.220446049e-16    -2.353672812e-14    -1.391942117e-14
                  16     2.012631324e-14    -1.831867991e-15    -1.976196984e-14    -3.343245819e-15

*Increment 8

***** Displacement Data ******
              NodeNo           Magnitude      X Displacement      Y Displacement      Z Displacement
----------------------------------------------------------------------------------------------------
                   1                   0                   0                   0                   0
                   2      0.000407099753     0.0002660037378     0.0003056227854    -3.958451072e-05
                   3       0.00113187871     0.0004340234593       0.00104526903    -1.362737195e-05
                   4      0.002068544768     0.0004906030162      0.002009514553      -6.1153629e-06
                   5                   0                   0                   0                   0
                   6      0.000407099753     0.0002660037378     0.0003056227854     3.958451072e-05
                   7       0.00113187871     0.0004340234593       0.00104526903     1.362737195e-05
                   8      0.002068544768     0.0004906030162      0.002009514553       6.1153629e-06
                   9                   0                   0                   0                   0
                  10      0.000407099753    -0.0002660037378     0.0003056227854     3.958451072e-05
                  11       0.00113187871    -0.0004340234593       0.00104526903     1.362737195e-05
                  12      0.002068544768    -0.0004906030162      0.002009514553       6.1153629e-06
                  13                   0                   0                   0                   0
                  14      0.000407099753    -0.0002660037378     0.0003056227854    -3.958451072e-05
                  15       0.00113187871    -0.0004340234593       0.00104526903    -1.362737195e-05
                  16      0.002068544768    -0.0004906030162      0.002009514553      -6.1153629e-06

***** Stress Data ******
          Element No         Integral No           Stress XX           Stress YY           Stress ZZ           Stress XY           Stress XZ           Stress YZ               Mises            YieldFlg
                   1                   1         16.01898136        -8.789664187        -7.229317177         15.60432278        -1.065736827        0.7801735049         36.26170909               False
                   1                   2         14.59799893        -10.21064662        -4.387352305        -9.204322775        -1.065736827         2.911647159         28.06974763               False
                   1                   3        -14.59799893         10.21064662         4.387352305        -9.204322775         1.065736827         2.911647159         28.06974763               False
                   1                   4        -16.01898136         8.789664187         7.229317177         15.60432278         1.065736827        0.7801735049         36.26170909               False
                   1                   5         16.01898136        -8.789664187        -7.229317177         15.60432278         1.065736827       -0.7801735049         36.26170909               False
                   1                   6         14.59799893        -10.21064662        -4.387352305        -9.204322775         1.065736827        -2.911647159         28.06974763               False
                   1                   7        -14.59799893         10.21064662         4.387352305        -9.204322775        -1.065736827        -2.911647159         28.06974763               False
                   1                   8        -16.01898136         8.789664187         7.229317177         15.60432278        -1.065736827       -0.7801735049         36.26170909               False
                   2                   1         8.326671693          -7.3435657       -0.9831059936          11.0351187        0.6988460437         3.180229853         24.15512681               False
                   2                   2         9.258466418        -6.411770975        -2.846695443        -4.635118697        0.6988460437         1.782537766         16.66886258               False
                   2                   3        -9.258466418         6.411770975         2.846695443        -4.635118697       -0.6988460437         1.782537766         16.66886258               False
                   2                   4        -8.326671693           7.3435657        0.9831059936          11.0351187       -0.6988460437         3.180229853         24.15512681               False
                   2                   5         8.326671693          -7.3435657       -0.9831059936          11.0351187       -0.6988460437        -3.180229853         24.15512681               False
                   2                   6         9.258466418        -6.411770975        -2.846695443        -4.635118697       -0.6988460437        -1.782537766         16.66886258               False
                   2                   7        -9.258466418         6.411770975         2.846695443        -4.635118697        0.6988460437        -1.782537766         16.66886258               False
                   2                   8        -8.326671693           7.3435657        0.9831059936          11.0351187        0.6988460437        -3.180229853         24.15512681               False
                   3                   1         2.769305997        -2.507545315       -0.2617606819         5.838425656        0.2022463976         1.122892316         11.27852169               False
                   3                   2          3.03896786        -2.237883451       -0.8010844087        0.5615743442        0.2022463976        0.7183995213         4.994484759               False
                   3                   3         -3.03896786         2.237883451        0.8010844087        0.5615743442       -0.2022463976        0.7183995213         4.994484759               False
                   3                   4        -2.769305997         2.507545315        0.2617606819         5.838425656       -0.2022463976         1.122892316         11.27852169               False
                   3                   5         2.769305997        -2.507545315       -0.2617606819         5.838425656       -0.2022463976        -1.122892316         11.27852169               False
                   3                   6          3.03896786        -2.237883451       -0.8010844087        0.5615743442       -0.2022463976       -0.7183995213         4.994484759               False
                   3                   7         -3.03896786         2.237883451        0.8010844087        0.5615743442        0.2022463976       -0.7183995213         4.994484759               False
                   3                   8        -2.769305997         2.507545315        0.2617606819         5.838425656        0.2022463976        -1.122892316         11.27852169               False

***** Strain Data ******
          Element No         Integral No           Strain XX           Strain YY           Strain ZZ           Strain XY           Strain XZ           Strain YZ
                   1                   1     9.916512273e-05    -5.441220687e-05    -4.475291586e-05     0.0001931963772    -1.319483691e-05     9.659291013e-06
                   1                   2     9.036856479e-05    -6.320876481e-05    -2.715979998e-05     -0.000113958282    -1.319483691e-05     3.604896483e-05
                   1                   3    -9.036856479e-05     6.320876481e-05     2.715979998e-05     -0.000113958282     1.319483691e-05     3.604896483e-05
                   1                   4    -9.916512273e-05     5.441220687e-05     4.475291586e-05     0.0001931963772     1.319483691e-05     9.659291013e-06
                   1                   5     9.916512273e-05    -5.441220687e-05    -4.475291586e-05     0.0001931963772     1.319483691e-05    -9.659291013e-06
                   1                   6     9.036856479e-05    -6.320876481e-05    -2.715979998e-05     -0.000113958282     1.319483691e-05    -3.604896483e-05
                   1                   7    -9.036856479e-05     6.320876481e-05     2.715979998e-05     -0.000113958282    -1.319483691e-05    -3.604896483e-05
                   1                   8    -9.916512273e-05     5.441220687e-05     4.475291586e-05     0.0001931963772    -1.319483691e-05    -9.659291013e-06
                   2                   1     5.154606286e-05    -4.546016862e-05    -6.085894246e-06     0.0001366252791     8.652379589e-06     3.937427437e-05
                   2                   2     5.731431592e-05    -3.969191556e-05    -1.762240036e-05    -5.738718386e-05     8.652379589e-06      2.20695152e-05
                   2                   3    -5.731431592e-05     3.969191556e-05     1.762240036e-05    -5.738718386e-05    -8.652379589e-06      2.20695152e-05
                   2                   4    -5.154606286e-05     4.546016862e-05     6.085894246e-06     0.0001366252791    -8.652379589e-06     3.937427437e-05
                   2                   5     5.154606286e-05    -4.546016862e-05    -6.085894246e-06     0.0001366252791    -8.652379589e-06    -3.937427437e-05
                   2                   6     5.731431592e-05    -3.969191556e-05    -1.762240036e-05    -5.738718386e-05    -8.652379589e-06     -2.20695152e-05
                   2                   7    -5.731431592e-05     3.969191556e-05     1.762240036e-05    -5.738718386e-05     8.652379589e-06     -2.20695152e-05
                   2                   8    -5.154606286e-05     4.546016862e-05     6.085894246e-06     0.0001366252791     8.652379589e-06    -3.937427437e-05
                   3                   1     1.714332284e-05    -1.552289957e-05    -1.620423269e-06     7.228527002e-05     2.504003017e-06      1.39024763e-05
                   3                   2     1.881265818e-05    -1.385356422e-05    -4.959093959e-06     6.952825214e-06     2.504003017e-06     8.894470264e-06
                   3                   3    -1.881265818e-05     1.385356422e-05     4.959093959e-06     6.952825214e-06    -2.504003017e-06     8.894470264e-06
                   3                   4    -1.714332284e-05     1.552289957e-05     1.620423269e-06     7.228527002e-05    -2.504003017e-06      1.39024763e-05
                   3                   5     1.714332284e-05    -1.552289957e-05    -1.620423269e-06     7.228527002e-05    -2.504003017e-06     -1.39024763e-05
                   3                   6     1.881265818e-05    -1.385356422e-05    -4.959093959e-06     6.952825214e-06    -2.504003017e-06    -8.894470264e-06
                   3                   7    -1.881265818e-05     1.385356422e-05     4.959093959e-06     6.952825214e-06     2.504003017e-06    -8.894470264e-06
                   3                   8    -1.714332284e-05     1.552289957e-05     1.620423269e-06     7.228527002e-05     2.504003017e-06     -1.39024763e-05

***** Plastic Strain Data ******
          Element No         Integral No          PStrain XX          PStrain YY          PStrain ZZ          PStrain XY          PStrain XZ          PStrain YZ
                   1                   1                   0                   0                   0                   0                   0                   0
                   1                   2                   0                   0                   0                   0                   0                   0
                   1                   3                   0                   0                   0                   0                   0                   0
                   1                   4                   0                   0                   0                   0                   0                   0
                   1                   5                   0                   0                   0                   0                   0                   0
                   1                   6                   0                   0                   0                   0                   0                   0
                   1                   7                   0                   0                   0                   0                   0                   0
                   1                   8                   0                   0                   0                   0                   0                   0
                   2                   1                   0                   0                   0                   0                   0                   0
                   2                   2                   0                   0                   0                   0                   0                   0
                   2                   3                   0                   0                   0                   0                   0                   0
                   2                   4                   0                   0                   0                   0                   0                   0
                   2                   5                   0                   0                   0                   0                   0                   0
                   2                   6                   0                   0                   0                   0                   0                   0
                   2                   7                   0                   0                   0                   0                   0                   0
                   2                   8                   0                   0                   0                   0                   0                   0
                   3                   1                   0                   0                   0                   0                   0                   0
                   3                   2                   0                   0                   0                   0                   0                   0
                   3                   3                   0                   0                   0                   0                   0                   0
                   3                   4                   0                   0                   0                   0                   0                   0
                   3                   5                   0                   0                   0                   0                   0                   0
                   3                   6                   0                   0                   0                   0                   0                   0
                   3                   7                   0                   0                   0                   0                   0                   0
                   3                   8                   0                   0                   0                   0                   0                   0

***** Reaction Force Data ******
              NodeNo           Magnitude             X Force             Y Force             Z Force----------------------------------------------------------------------------------------------------
                   1         4.943011504                -4.8                -0.8        0.8679647073
                   2     6.303877228e-15     5.773159728e-15    -6.661338148e-16    -2.442490654e-15
                   3     1.545733897e-14     1.043609643e-14     1.065814104e-14      4.05231404e-15
                   4     1.226252994e-14    -6.987466161e-15     2.997602166e-15     9.620776398e-15
                   5         4.943011504                -4.8                -0.8       -0.8679647073
                   6     1.707904112e-14     5.329070518e-15     1.598721155e-14     2.775557562e-15
                   7     6.338868527e-15     6.661338148e-16    -4.996003611e-15    -3.844147223e-15
                   8     2.390763269e-14     -3.60822483e-15     2.209343819e-14    -8.392592177e-15
                   9         4.943011504                 4.8                -0.8       -0.8679647073
                  10     7.391951274e-15     7.105427358e-15     9.992007222e-16     1.776356839e-15
                  11     1.618385702e-14     1.554312234e-14    -3.330669074e-16      4.49640325e-15
                  12     1.384357095e-14    -7.386452561e-15    -1.054711873e-14     5.083607146e-15
                  13         4.943011504                 4.8                -0.8        0.8679647073
                  14     3.539244038e-15    -2.220446049e-15    -1.554312234e-15      -2.2759572e-15
                  15     2.670040211e-14    -4.662936703e-15    -2.353672812e-14    -1.171285291e-14
                  16     1.590520751e-14      5.95357097e-15    -1.465494393e-14    -1.662298771e-15

*Increment 9

***** Displacement Data ******
              NodeNo           Magnitude      X Displacement      Y Displacement      Z Displacement
----------------------------------------------------------------------------------------------------
                   1                   0                   0                   0                   0
                   2     0.0004579872222      0.000299254205     0.0003438256335    -4.453257456e-05
                   3      0.001273363549     0.0004882763918      0.001175927659    -1.533079345e-05
                   4      0.002327112864     0.0005519283933      0.002260703872    -6.879783263e-06
                   5                   0                   0                   0                   0
                   6     0.0004579872222      0.000299254205     0.0003438256335     4.453257456e-05
                   7      0.001273363549     0.0004882763918      0.001175927659     1.533079345e-05
                   8      0.002327112864     0.0005519283933      0.002260703872     6.879783263e-06
                   9                   0                   0                   0                   0
                  10     0.0004579872222     -0.000299254205     0.0003438256335     4.453257456e-05
                  11      0.001273363549    -0.0004882763918      0.001175927659     1.533079345e-05
                  12      0.002327112864    -0.0005519283933      0.002260703872     6.879783263e-06
                  13                   0                   0                   0                   0
                  14     0.0004579872222     -0.000299254205     0.0003438256335    -4.453257456e-05
                  15      0.001273363549    -0.0004882763918      0.001175927659    -1.533079345e-05
                  16      0.002327112864    -0.0005519283933      0.002260703872    -6.879783263e-06

***** Stress Data ******
          Element No         Integral No           Stress XX           Stress YY           Stress ZZ           Stress XY           Stress XZ           Stress YZ               Mises            YieldFlg
                   1                   1         18.02135403         -9.88837221        -8.132981824         17.55486312         -1.19895393         0.877695193         40.79442272               False
                   1                   2         16.42274879        -11.48697745        -4.935771343        -10.35486312         -1.19895393         3.275603054         31.57846608               False
                   1                   3        -16.42274879         11.48697745         4.935771343        -10.35486312          1.19895393         3.275603054         31.57846608               False
                   1                   4        -18.02135403          9.88837221         8.132981824         17.55486312          1.19895393         0.877695193         40.79442272               False
                   1                   5         18.02135403         -9.88837221        -8.132981824         17.55486312          1.19895393        -0.877695193         40.79442272               False
                   1                   6         16.42274879        -11.48697745        -4.935771343        -10.35486312          1.19895393        -3.275603054         31.57846608               False
                   1                   7        -16.42274879         11.48697745         4.935771343        -10.35486312         -1.19895393        -3.275603054         31.57846608               False
                   1                   8        -18.02135403          9.88837221         8.132981824         17.55486312         -1.19895393        -0.877695193         40.79442272               False
                   2                   1         9.367505655        -8.261511412        -1.105994243         12.41450853        0.7862017992         3.577758585         27.17451766               False
                   2                   2         10.41577472        -7.213242347        -3.202532374        -5.214508534        0.7862017992         2.005354987          18.7524704               False
                   2                   3        -10.41577472         7.213242347         3.202532374        -5.214508534       -0.7862017992         2.005354987          18.7524704               False
                   2                   4        -9.367505655         8.261511412         1.105994243         12.41450853       -0.7862017992         3.577758585         27.17451766               False
                   2                   5         9.367505655        -8.261511412        -1.105994243         12.41450853       -0.7862017992        -3.577758585         27.17451766               False
                   2                   6         10.41577472        -7.213242347        -3.202532374        -5.214508534       -0.7862017992        -2.005354987          18.7524704               False
                   2                   7        -10.41577472         7.213242347         3.202532374        -5.214508534        0.7862017992        -2.005354987          18.7524704               False
                   2                   8        -9.367505655         8.261511412         1.105994243         12.41450853        0.7862017992        -3.577758585         27.17451766               False
                   3                   1         3.115469246        -2.820988479       -0.2944807671         6.568228863        0.2275271973         1.263253856          12.6883369               False
                   3                   2         3.418838843        -2.517618883       -0.9012199598        0.6317711372        0.2275271973        0.8081994615         5.618795354               False
                   3                   3        -3.418838843         2.517618883        0.9012199598        0.6317711372       -0.2275271973        0.8081994615         5.618795354               False
                   3                   4        -3.115469246         2.820988479        0.2944807671         6.568228863       -0.2275271973         1.263253856          12.6883369               False
                   3                   5         3.115469246        -2.820988479       -0.2944807671         6.568228863       -0.2275271973        -1.263253856          12.6883369               False
                   3                   6         3.418838843        -2.517618883       -0.9012199598        0.6317711372       -0.2275271973       -0.8081994615         5.618795354               False
                   3                   7        -3.418838843         2.517618883        0.9012199598        0.6317711372        0.2275271973       -0.8081994615         5.618795354               False
                   3                   8        -3.115469246         2.820988479        0.2944807671         6.568228863        0.2275271973        -1.263253856          12.6883369               False

***** Strain Data ******
          Element No         Integral No           Strain XX           Strain YY           Strain ZZ           Strain XY           Strain XZ           Strain YZ
                   1                   1     0.0001115607631    -6.121373273e-05    -5.034703034e-05     0.0002173459244    -1.484419152e-05     1.086670239e-05
                   1                   2     0.0001016646354    -7.110986041e-05    -3.055477498e-05    -0.0001282030672    -1.484419152e-05     4.055508543e-05
                   1                   3    -0.0001016646354     7.110986041e-05     3.055477498e-05    -0.0001282030672     1.484419152e-05     4.055508543e-05
                   1                   4    -0.0001115607631     6.121373273e-05     5.034703034e-05     0.0002173459244     1.484419152e-05     1.086670239e-05
                   1                   5     0.0001115607631    -6.121373273e-05    -5.034703034e-05     0.0002173459244     1.484419152e-05    -1.086670239e-05
                   1                   6     0.0001016646354    -7.110986041e-05    -3.055477498e-05    -0.0001282030672     1.484419152e-05    -4.055508543e-05
                   1                   7    -0.0001016646354     7.110986041e-05     3.055477498e-05    -0.0001282030672    -1.484419152e-05    -4.055508543e-05
                   1                   8    -0.0001115607631     6.121373273e-05     5.034703034e-05     0.0002173459244    -1.484419152e-05    -1.086670239e-05
                   2                   1     5.798932072e-05     -5.11426897e-05    -6.846631027e-06      0.000153703439     9.733927037e-06     4.429605867e-05
                   2                   2     6.447860541e-05      -4.4653405e-05    -1.982520041e-05    -6.456058185e-05     9.733927037e-06     2.482820459e-05
                   2                   3    -6.447860541e-05       4.4653405e-05     1.982520041e-05    -6.456058185e-05    -9.733927037e-06     2.482820459e-05
                   2                   4    -5.798932072e-05      5.11426897e-05     6.846631027e-06      0.000153703439    -9.733927037e-06     4.429605867e-05
                   2                   5     5.798932072e-05     -5.11426897e-05    -6.846631027e-06      0.000153703439    -9.733927037e-06    -4.429605867e-05
                   2                   6     6.447860541e-05      -4.4653405e-05    -1.982520041e-05    -6.456058185e-05    -9.733927037e-06    -2.482820459e-05
                   2                   7    -6.447860541e-05       4.4653405e-05     1.982520041e-05    -6.456058185e-05     9.733927037e-06    -2.482820459e-05
                   2                   8    -5.798932072e-05      5.11426897e-05     6.846631027e-06      0.000153703439     9.733927037e-06    -4.429605867e-05
                   3                   1     1.928623819e-05    -1.746326201e-05    -1.822976177e-06     8.132092878e-05     2.817003395e-06     1.564028584e-05
                   3                   2     2.116424045e-05    -1.558525975e-05    -5.578980704e-06     7.821928366e-06     2.817003395e-06     1.000627905e-05
                   3                   3    -2.116424045e-05     1.558525975e-05     5.578980704e-06     7.821928366e-06    -2.817003395e-06     1.000627905e-05
                   3                   4    -1.928623819e-05     1.746326201e-05     1.822976177e-06     8.132092878e-05    -2.817003395e-06     1.564028584e-05
                   3                   5     1.928623819e-05    -1.746326201e-05    -1.822976177e-06     8.132092878e-05    -2.817003395e-06    -1.564028584e-05
                   3                   6     2.116424045e-05    -1.558525975e-05    -5.578980704e-06     7.821928366e-06    -2.817003395e-06    -1.000627905e-05
                   3                   7    -2.116424045e-05     1.558525975e-05     5.578980704e-06     7.821928366e-06     2.817003395e-06    -1.000627905e-05
                   3                   8    -1.928623819e-05     1.746326201e-05     1.822976177e-06     8.132092878e-05     2.817003395e-06    -1.564028584e-05

***** Plastic Strain Data ******
          Element No         Integral No          PStrain XX          PStrain YY          PStrain ZZ          PStrain XY          PStrain XZ          PStrain YZ
                   1                   1                   0                   0                   0                   0                   0                   0
                   1                   2                   0                   0                   0                   0                   0                   0
                   1                   3                   0                   0                   0                   0                   0                   0
                   1                   4                   0                   0                   0                   0                   0                   0
                   1                   5                   0                   0                   0                   0                   0                   0
                   1                   6                   0                   0                   0                   0                   0                   0
                   1                   7                   0                   0                   0                   0                   0                   0
                   1                   8                   0                   0                   0                   0                   0                   0
                   2                   1                   0                   0                   0                   0                   0                   0
                   2                   2                   0                   0                   0                   0                   0                   0
                   2                   3                   0                   0                   0                   0                   0                   0
                   2                   4                   0                   0                   0                   0                   0                   0
                   2                   5                   0                   0                   0                   0                   0                   0
                   2                   6                   0                   0                   0                   0                   0                   0
                   2                   7                   0                   0                   0                   0                   0                   0
                   2                   8                   0                   0                   0                   0                   0                   0
                   3                   1                   0                   0                   0                   0                   0                   0
                   3                   2                   0                   0                   0                   0                   0                   0
                   3                   3                   0                   0                   0                   0                   0                   0
                   3                   4                   0                   0                   0                   0                   0                   0
                   3                   5                   0                   0                   0                   0                   0                   0
                   3                   6                   0                   0                   0                   0                   0                   0
                   3                   7                   0                   0                   0                   0                   0                   0
                   3                   8                   0                   0                   0                   0                   0                   0

***** Reaction Force Data ******
              NodeNo           Magnitude             X Force             Y Force             Z Force----------------------------------------------------------------------------------------------------
                   1         5.560887943                -5.4                -0.9        0.9764602957
                   2     8.502634173e-15     6.217248938e-15    -3.663735981e-15     -4.49640325e-15
                   3     2.976246823e-14     1.243449788e-14     2.609024108e-14     7.105427358e-15
                   4      1.21340402e-14    -2.060851489e-15    -3.330669074e-16     1.195311211e-14
                   5         5.560887943                -5.4                -0.9       -0.9764602957
                   6     1.553717358e-14     2.664535259e-15     1.498801083e-14     3.108624469e-15
                   7      6.62632034e-15    -4.440892099e-16     2.664535259e-15    -6.050715484e-15
                   8     2.591479939e-14    -2.747801986e-15     2.109423747e-14     -1.48006607e-14
                   9         5.560887943                 5.4                -0.9       -0.9764602957
                  10     1.252942144e-14     1.243449788e-14    -6.661338148e-16     1.387778781e-15
                  11     1.221611141e-14     9.325873407e-15    -5.662137426e-15     5.495603972e-15
                  12     1.913429404e-14     -5.06539255e-15    -1.654232307e-14     8.174017019e-15
                  13         5.560887943                 5.4                -0.9        0.9764602957
                  14      2.77777712e-15     2.664535259e-15    -7.771561172e-16    -1.110223025e-16
                  15     3.203153365e-14    -9.992007222e-15     -2.68673972e-14    -1.429412144e-14
                  16      1.62452268e-14     7.577272143e-15    -1.432187702e-14    -1.173106751e-15

*Increment 10

***** Displacement Data ******
              NodeNo           Magnitude      X Displacement      Y Displacement      Z Displacement
----------------------------------------------------------------------------------------------------
                   1                   0                   0                   0                   0
                   2     0.0005088746913     0.0003325046722     0.0003820284817     -4.94806384e-05
                   3      0.001414848387     0.0005425293242      0.001306586288    -1.703421494e-05
                   4       0.00258568096     0.0006132537703      0.002511893192    -7.644203625e-06
                   5                   0                   0                   0                   0
                   6     0.0005088746913     0.0003325046722     0.0003820284817      4.94806384e-05
                   7      0.001414848387     0.0005425293242      0.001306586288     1.703421494e-05
                   8       0.00258568096     0.0006132537703      0.002511893192     7.644203625e-06
                   9                   0                   0                   0                   0
                  10     0.0005088746913    -0.0003325046722     0.0003820284817      4.94806384e-05
                  11      0.001414848387    -0.0005425293242      0.001306586288     1.703421494e-05
                  12       0.00258568096    -0.0006132537703      0.002511893192     7.644203625e-06
                  13                   0                   0                   0                   0
                  14     0.0005088746913    -0.0003325046722     0.0003820284817     -4.94806384e-05
                  15      0.001414848387    -0.0005425293242      0.001306586288    -1.703421494e-05
                  16       0.00258568096    -0.0006132537703      0.002511893192    -7.644203625e-06

***** Stress Data ******
          Element No         Integral No           Stress XX           Stress YY           Stress ZZ           Stress XY           Stress XZ           Stress YZ               Mises            YieldFlg
                   1                   1          20.0237267        -10.98708023        -9.036646471         19.50540347        -1.332171034        0.9752168811         45.32713636               False
                   1                   2         18.24749866        -12.76330828        -5.484190381        -11.50540347        -1.332171034         3.639558949         35.08718453               False
                   1                   3        -18.24749866         12.76330828         5.484190381        -11.50540347         1.332171034         3.639558949         35.08718453               False
                   1                   4         -20.0237267         10.98708023         9.036646471         19.50540347         1.332171034        0.9752168811         45.32713636               False
                   1                   5          20.0237267        -10.98708023        -9.036646471         19.50540347         1.332171034       -0.9752168811         45.32713636               False
                   1                   6         18.24749866        -12.76330828        -5.484190381        -11.50540347         1.332171034        -3.639558949         35.08718453               False
                   1                   7        -18.24749866         12.76330828         5.484190381        -11.50540347        -1.332171034        -3.639558949         35.08718453               False
                   1                   8         -20.0237267         10.98708023         9.036646471         19.50540347        -1.332171034       -0.9752168811         45.32713636               False
                   2                   1         10.40833962        -9.179457125        -1.228882492         13.79389837        0.8735575546         3.975287316         30.19390851               False
                   2                   2         11.57308302        -8.014713719        -3.558369304        -5.793898371        0.8735575546         2.228172207         20.83607822               False
                   2                   3        -11.57308302         8.014713719         3.558369304        -5.793898371       -0.8735575546         2.228172207         20.83607822               False
                   2                   4        -10.40833962         9.179457125         1.228882492         13.79389837       -0.8735575546         3.975287316         30.19390851               False
                   2                   5         10.40833962        -9.179457125        -1.228882492         13.79389837       -0.8735575546        -3.975287316         30.19390851               False
                   2                   6         11.57308302        -8.014713719        -3.558369304        -5.793898371       -0.8735575546        -2.228172207         20.83607822               False
                   2                   7        -11.57308302         8.014713719         3.558369304        -5.793898371        0.8735575546        -2.228172207         20.83607822               False
                   2                   8        -10.40833962         9.179457125         1.228882492         13.79389837        0.8735575546        -3.975287316         30.19390851               False
                   3                   1         3.461632496        -3.134431644       -0.3272008524          7.29803207         0.252807997         1.403615396         14.09815211               False
                   3                   2         3.798709825        -2.797354314        -1.001355511        0.7019679303         0.252807997        0.8979994017         6.243105948               False
                   3                   3        -3.798709825         2.797354314         1.001355511        0.7019679303        -0.252807997        0.8979994017         6.243105948               False
                   3                   4        -3.461632496         3.134431644        0.3272008524          7.29803207        -0.252807997         1.403615396         14.09815211               False
                   3                   5         3.461632496        -3.134431644       -0.3272008524          7.29803207        -0.252807997        -1.403615396         14.09815211               False
                   3                   6         3.798709825        -2.797354314        -1.001355511        0.7019679303        -0.252807997       -0.8979994017         6.243105948               False
                   3                   7        -3.798709825         2.797354314         1.001355511        0.7019679303         0.252807997       -0.8979994017         6.243105948               False
                   3                   8        -3.461632496         3.134431644        0.3272008524          7.29803207         0.252807997        -1.403615396         14.09815211               False

***** Strain Data ******
          Element No         Integral No           Strain XX           Strain YY           Strain ZZ           Strain XY           Strain XZ           Strain YZ
                   1                   1     0.0001239564034    -6.801525859e-05    -5.594114482e-05     0.0002414954715    -1.649354613e-05     1.207411377e-05
                   1                   2      0.000112960706    -7.901095601e-05    -3.394974998e-05    -0.0001424478525    -1.649354613e-05     4.506120603e-05
                   1                   3     -0.000112960706     7.901095601e-05     3.394974998e-05    -0.0001424478525     1.649354613e-05     4.506120603e-05
                   1                   4    -0.0001239564034     6.801525859e-05     5.594114482e-05     0.0002414954715     1.649354613e-05     1.207411377e-05
                   1                   5     0.0001239564034    -6.801525859e-05    -5.594114482e-05     0.0002414954715     1.649354613e-05    -1.207411377e-05
                   1                   6      0.000112960706    -7.901095601e-05    -3.394974998e-05    -0.0001424478525     1.649354613e-05    -4.506120603e-05
                   1                   7     -0.000112960706     7.901095601e-05     3.394974998e-05    -0.0001424478525    -1.649354613e-05    -4.506120603e-05
                   1                   8    -0.0001239564034     6.801525859e-05     5.594114482e-05     0.0002414954715    -1.649354613e-05    -1.207411377e-05
                   2                   1     6.443257858e-05    -5.682521077e-05    -7.607367807e-06     0.0001707815989     1.081547449e-05     4.921784297e-05
                   2                   2      7.16428949e-05    -4.961489445e-05    -2.202800046e-05    -7.173397983e-05     1.081547449e-05     2.758689399e-05
                   2                   3     -7.16428949e-05     4.961489445e-05     2.202800046e-05    -7.173397983e-05    -1.081547449e-05     2.758689399e-05
                   2                   4    -6.443257858e-05     5.682521077e-05     7.607367807e-06     0.0001707815989    -1.081547449e-05     4.921784297e-05
                   2                   5     6.443257858e-05    -5.682521077e-05    -7.607367807e-06     0.0001707815989    -1.081547449e-05    -4.921784297e-05
                   2                   6      7.16428949e-05    -4.961489445e-05    -2.202800046e-05    -7.173397983e-05    -1.081547449e-05    -2.758689399e-05
                   2                   7     -7.16428949e-05     4.961489445e-05     2.202800046e-05    -7.173397983e-05     1.081547449e-05    -2.758689399e-05
                   2                   8    -6.443257858e-05     5.682521077e-05     7.607367807e-06     0.0001707815989     1.081547449e-05    -4.921784297e-05
                   3                   1     2.142915355e-05    -1.940362446e-05    -2.025529086e-06     9.035658753e-05     3.130003772e-06     1.737809537e-05
                   3                   2     2.351582273e-05    -1.731695528e-05    -6.198867449e-06     8.691031518e-06     3.130003772e-06     1.111808783e-05
                   3                   3    -2.351582273e-05     1.731695528e-05     6.198867449e-06     8.691031518e-06    -3.130003772e-06     1.111808783e-05
                   3                   4    -2.142915355e-05     1.940362446e-05     2.025529086e-06     9.035658753e-05    -3.130003772e-06     1.737809537e-05
                   3                   5     2.142915355e-05    -1.940362446e-05    -2.025529086e-06     9.035658753e-05    -3.130003772e-06    -1.737809537e-05
                   3                   6     2.351582273e-05    -1.731695528e-05    -6.198867449e-06     8.691031518e-06    -3.130003772e-06    -1.111808783e-05
                   3                   7    -2.351582273e-05     1.731695528e-05     6.198867449e-06     8.691031518e-06     3.130003772e-06    -1.111808783e-05
                   3                   8    -2.142915355e-05     1.940362446e-05     2.025529086e-06     9.035658753e-05     3.130003772e-06    -1.737809537e-05

***** Plastic Strain Data ******
          Element No         Integral No          PStrain XX          PStrain YY          PStrain ZZ          PStrain XY          PStrain XZ          PStrain YZ
                   1                   1                   0                   0                   0                   0                   0                   0
                   1                   2                   0                   0                   0                   0                   0                   0
                   1                   3                   0                   0                   0                   0                   0                   0
                   1                   4                   0                   0                   0                   0                   0                   0
                   1                   5                   0                   0                   0                   0                   0                   0
                   1                   6                   0                   0                   0                   0                   0                   0
                   1                   7                   0                   0                   0                   0                   0                   0
                   1                   8                   0                   0                   0                   0                   0                   0
                   2                   1                   0                   0                   0                   0                   0                   0
                   2                   2                   0                   0                   0                   0                   0                   0
                   2                   3                   0                   0                   0                   0                   0                   0
                   2                   4                   0                   0                   0                   0                   0                   0
                   2                   5                   0                   0                   0                   0                   0                   0
                   2                   6                   0                   0                   0                   0                   0                   0
                   2                   7                   0                   0                   0                   0                   0                   0
                   2                   8                   0                   0                   0                   0                   0                   0
                   3                   1                   0                   0                   0                   0                   0                   0
                   3                   2                   0                   0                   0                   0                   0                   0
                   3                   3                   0                   0                   0                   0                   0                   0
                   3                   4                   0                   0                   0                   0                   0                   0
                   3                   5                   0                   0                   0                   0                   0                   0
                   3                   6                   0                   0                   0                   0                   0                   0
                   3                   7                   0                   0                   0                   0                   0                   0
                   3                   8                   0                   0                   0                   0                   0                   0

***** Reaction Force Data ******
              NodeNo           Magnitude             X Force             Y Force             Z Force----------------------------------------------------------------------------------------------------
                   1         6.178764381                  -6                  -1         1.084955884
                   2     4.458896725e-15     4.440892099e-15    -3.330669074e-16    -2.220446049e-16
                   3     4.464604909e-14     1.199040867e-14     4.141131882e-14     1.160183061e-14
                   4     1.917180867e-14    -4.427014311e-15     1.088018564e-14      1.51519422e-14
                   5         6.178764381                  -6                  -1        -1.084955884
                   6     2.182654418e-14     5.773159728e-15     2.098321517e-14     1.665334537e-15
                   7     5.766751038e-15     4.440892099e-15     3.330669074e-16    -3.663735981e-15
                   8     2.817822618e-14    -7.466249841e-15     2.398081733e-14    -1.277450368e-14
                   9         6.178764381                   6                  -1        -1.084955884
                  10     1.307048927e-14     1.199040867e-14    -3.996802889e-15     3.330669074e-15
                  11      1.97010632e-14     1.465494393e-14    -1.154631946e-14      6.32827124e-15
                  12     2.930589246e-14    -1.298960939e-14    -2.420286194e-14     1.021405183e-14
                  13         6.178764381                   6                  -1         1.084955884
                  14     7.595094054e-15    -8.881784197e-16    -5.107025913e-15    -5.551115123e-15
                  15     4.439574381e-14    -1.776356839e-15    -3.785860514e-14    -2.312039449e-14
                  16     2.133447515e-14     4.996003611e-16    -2.053912596e-14     -5.74930728e-15

*Increment 11

***** Displacement Data ******
              NodeNo           Magnitude      X Displacement      Y Displacement      Z Displacement
----------------------------------------------------------------------------------------------------
                   1                   0                   0                   0                   0
                   2     0.0005597621604     0.0003657551394     0.0004202313299    -5.442870224e-05
                   3      0.001556333226     0.0005967822566      0.001437244916    -1.873763643e-05
                   4      0.002844249056     0.0006745791473      0.002763082511    -8.408623988e-06
                   5                   0                   0                   0                   0
                   6     0.0005597621604     0.0003657551394     0.0004202313299     5.442870224e-05
                   7      0.001556333226     0.0005967822566      0.001437244916     1.873763643e-05
                   8      0.002844249056     0.0006745791473      0.002763082511     8.408623988e-06
                   9                   0                   0                   0                   0
                  10     0.0005597621604    -0.0003657551394     0.0004202313299     5.442870224e-05
                  11      0.001556333226    -0.0005967822566      0.001437244916     1.873763643e-05
                  12      0.002844249056    -0.0006745791473      0.002763082511     8.408623988e-06
                  13                   0                   0                   0                   0
                  14     0.0005597621604    -0.0003657551394     0.0004202313299    -5.442870224e-05
                  15      0.001556333226    -0.0005967822566      0.001437244916    -1.873763643e-05
                  16      0.002844249056    -0.0006745791473      0.002763082511    -8.408623988e-06

***** Stress Data ******
          Element No         Integral No           Stress XX           Stress YY           Stress ZZ           Stress XY           Stress XZ           Stress YZ               Mises            YieldFlg
                   1                   1         22.02609938        -12.08578826        -9.940311118         21.45594382        -1.465388137         1.072738569         49.85984999               False
                   1                   2         20.07224853        -14.03963911        -6.032609419        -12.65594382        -1.465388137         4.003514844         38.59590299               False
                   1                   3        -20.07224853         14.03963911         6.032609419        -12.65594382         1.465388137         4.003514844         38.59590299               False
                   1                   4        -22.02609938         12.08578826         9.940311118         21.45594382         1.465388137         1.072738569         49.85984999               False
                   1                   5         22.02609938        -12.08578826        -9.940311118         21.45594382         1.465388137        -1.072738569         49.85984999               False
                   1                   6         20.07224853        -14.03963911        -6.032609419        -12.65594382         1.465388137        -4.003514844         38.59590299               False
                   1                   7        -20.07224853         14.03963911         6.032609419        -12.65594382        -1.465388137        -4.003514844         38.59590299               False
                   1                   8        -22.02609938         12.08578826         9.940311118         21.45594382        -1.465388137        -1.072738569         49.85984999               False
                   2                   1         11.44917358        -10.09740284        -1.351770741         15.17328821        0.9609133101         4.372816048         33.21329936               False
                   2                   2         12.73039133        -8.816185091        -3.914206235        -6.373288208        0.9609133101         2.450989428         22.91968604               False
                   2                   3        -12.73039133         8.816185091         3.914206235        -6.373288208       -0.9609133101         2.450989428         22.91968604               False
                   2                   4        -11.44917358         10.09740284         1.351770741         15.17328821       -0.9609133101         4.372816048         33.21329936               False
                   2                   5         11.44917358        -10.09740284        -1.351770741         15.17328821       -0.9609133101        -4.372816048         33.21329936               False
                   2                   6         12.73039133        -8.816185091        -3.914206235        -6.373288208       -0.9609133101        -2.450989428         22.91968604               False
                   2                   7        -12.73039133         8.816185091         3.914206235        -6.373288208        0.9609133101        -2.450989428         22.91968604               False
                   2                   8        -11.44917358         10.09740284         1.351770741         15.17328821        0.9609133101        -4.372816048         33.21329936               False
                   3                   1         3.807795746        -3.447874808       -0.3599209376         8.027835277        0.2780887967         1.543976935         15.50796732               False
                   3                   2         4.178580808        -3.077089746        -1.101491062        0.7721647233        0.2780887967        0.9877993418         6.867416543               False
                   3                   3        -4.178580808         3.077089746         1.101491062        0.7721647233       -0.2780887967        0.9877993418         6.867416543               False
                   3                   4        -3.807795746         3.447874808        0.3599209376         8.027835277       -0.2780887967         1.543976935         15.50796732               False
                   3                   5         3.807795746        -3.447874808       -0.3599209376         8.027835277       -0.2780887967        -1.543976935         15.50796732               False
                   3                   6         4.178580808        -3.077089746        -1.101491062        0.7721647233       -0.2780887967       -0.9877993418         6.867416543               False
                   3                   7        -4.178580808         3.077089746         1.101491062        0.7721647233        0.2780887967       -0.9877993418         6.867416543               False
                   3                   8        -3.807795746         3.447874808        0.3599209376         8.027835277        0.2780887967        -1.543976935         15.50796732               False

***** Strain Data ******
          Element No         Integral No           Strain XX           Strain YY           Strain ZZ           Strain XY           Strain XZ           Strain YZ
                   1                   1     0.0001363520438    -7.481678445e-05     -6.15352593e-05     0.0002656450187    -1.814290075e-05     1.328152514e-05
                   1                   2     0.0001242567766    -8.691205161e-05    -3.734472498e-05    -0.0001566926377    -1.814290075e-05     4.956732663e-05
                   1                   3    -0.0001242567766     8.691205161e-05     3.734472498e-05    -0.0001566926377     1.814290075e-05     4.956732663e-05
                   1                   4    -0.0001363520438     7.481678445e-05      6.15352593e-05     0.0002656450187     1.814290075e-05     1.328152514e-05
                   1                   5     0.0001363520438    -7.481678445e-05     -6.15352593e-05     0.0002656450187     1.814290075e-05    -1.328152514e-05
                   1                   6     0.0001242567766    -8.691205161e-05    -3.734472498e-05    -0.0001566926377     1.814290075e-05    -4.956732663e-05
                   1                   7    -0.0001242567766     8.691205161e-05     3.734472498e-05    -0.0001566926377    -1.814290075e-05    -4.956732663e-05
                   1                   8    -0.0001363520438     7.481678445e-05      6.15352593e-05     0.0002656450187    -1.814290075e-05    -1.328152514e-05
                   2                   1     7.087583644e-05    -6.250773185e-05    -8.368104588e-06     0.0001878597588     1.189702193e-05     5.413962726e-05
                   2                   2     7.880718439e-05    -5.457638389e-05     -2.42308005e-05    -7.890737781e-05     1.189702193e-05     3.034558339e-05
                   2                   3    -7.880718439e-05     5.457638389e-05      2.42308005e-05    -7.890737781e-05    -1.189702193e-05     3.034558339e-05
                   2                   4    -7.087583644e-05     6.250773185e-05     8.368104588e-06     0.0001878597588    -1.189702193e-05     5.413962726e-05
                   2                   5     7.087583644e-05    -6.250773185e-05    -8.368104588e-06     0.0001878597588    -1.189702193e-05    -5.413962726e-05
                   2                   6     7.880718439e-05    -5.457638389e-05     -2.42308005e-05    -7.890737781e-05    -1.189702193e-05    -3.034558339e-05
                   2                   7    -7.880718439e-05     5.457638389e-05      2.42308005e-05    -7.890737781e-05     1.189702193e-05    -3.034558339e-05
                   2                   8    -7.087583644e-05     6.250773185e-05     8.368104588e-06     0.0001878597588     1.189702193e-05    -5.413962726e-05
                   3                   1      2.35720689e-05    -2.134398691e-05    -2.228081995e-06     9.939224628e-05     3.443004149e-06     1.911590491e-05
                   3                   2       2.5867405e-05    -1.904865081e-05    -6.818754193e-06     9.560134669e-06     3.443004149e-06     1.222989661e-05
                   3                   3      -2.5867405e-05     1.904865081e-05     6.818754193e-06     9.560134669e-06    -3.443004149e-06     1.222989661e-05
                   3                   4     -2.35720689e-05     2.134398691e-05     2.228081995e-06     9.939224628e-05    -3.443004149e-06     1.911590491e-05
                   3                   5      2.35720689e-05    -2.134398691e-05    -2.228081995e-06     9.939224628e-05    -3.443004149e-06    -1.911590491e-05
                   3                   6       2.5867405e-05    -1.904865081e-05    -6.818754193e-06     9.560134669e-06    -3.443004149e-06    -1.222989661e-05
                   3                   7      -2.5867405e-05     1.904865081e-05     6.818754193e-06     9.560134669e-06     3.443004149e-06    -1.222989661e-05
                   3                   8     -2.35720689e-05     2.134398691e-05     2.228081995e-06     9.939224628e-05     3.443004149e-06    -1.911590491e-05

***** Plastic Strain Data ******
          Element No         Integral No          PStrain XX          PStrain YY          PStrain ZZ          PStrain XY          PStrain XZ          PStrain YZ
                   1                   1                   0                   0                   0                   0                   0                   0
                   1                   2                   0                   0                   0                   0                   0                   0
                   1                   3                   0                   0                   0                   0                   0                   0
                   1                   4                   0                   0                   0                   0                   0                   0
                   1                   5                   0                   0                   0                   0                   0                   0
                   1                   6                   0                   0                   0                   0                   0                   0
                   1                   7                   0                   0                   0                   0                   0                   0
                   1                   8                   0                   0                   0                   0                   0                   0
                   2                   1                   0                   0                   0                   0                   0                   0
                   2                   2                   0                   0                   0                   0                   0                   0
                   2                   3                   0                   0                   0                   0                   0                   0
                   2                   4                   0                   0                   0                   0                   0                   0
                   2                   5                   0                   0                   0                   0                   0                   0
                   2                   6                   0                   0                   0                   0                   0                   0
                   2                   7                   0                   0                   0                   0                   0                   0
                   2                   8                   0                   0                   0                   0                   0                   0
                   3                   1                   0                   0                   0                   0                   0                   0
                   3                   2                   0                   0                   0                   0                   0                   0
                   3                   3                   0                   0                   0                   0                   0                   0
                   3                   4                   0                   0                   0                   0                   0                   0
                   3                   5                   0                   0                   0                   0                   0                   0
                   3                   6                   0                   0                   0                   0                   0                   0
                   3                   7                   0                   0                   0                   0                   0                   0
                   3                   8                   0                   0                   0                   0                   0                   0

***** Reaction Force Data ******
              NodeNo           Magnitude             X Force             Y Force             Z Force----------------------------------------------------------------------------------------------------
                   1         6.796640819                -6.6                -1.1         1.193451473
                   2     7.434557731e-15     7.105427358e-15     1.776356839e-15    -1.276756478e-15
                   3     4.651762434e-14     1.598721155e-14     4.196643033e-14     1.212918654e-14
                   4     1.330428287e-14     2.484124018e-15    -2.220446049e-15     1.288032181e-14
                   5         6.796640819                -6.6                -1.1        -1.193451473
                   6     2.237209588e-14     8.881784197e-15     1.998401444e-14     4.718447855e-15
                   7     8.971708072e-15     5.773159728e-15    -5.773159728e-15     3.719247132e-15
                   8     1.170407118e-14      1.58206781e-15     6.883382753e-15    -9.332812301e-15
                   9         6.796640819                 6.6                -1.1        -1.193451473
                  10     1.088018564e-14     1.065814104e-14    -1.998401444e-15    -8.881784197e-16
                  11     1.247618527e-14     1.110223025e-14     3.996802889e-15     -4.05231404e-15
                  12     2.801681126e-14    -1.780520176e-14    -1.998401444e-14     8.279835151e-15
                  13         6.796640819                 6.6                -1.1         1.193451473
                  14     7.661544441e-15     2.664535259e-15    -5.773159728e-15    -4.274358645e-15
                  15     3.714405397e-14    -7.105427358e-15    -3.042011087e-14    -2.009503675e-14
                  16     1.550103513e-14    -3.802513859e-15    -1.443289932e-14    -4.185020386e-15

*Increment 12

***** Displacement Data ******
              NodeNo           Magnitude      X Displacement      Y Displacement      Z Displacement
----------------------------------------------------------------------------------------------------
                   1                   0                   0                   0                   0
                   2     0.0006106496296     0.0003990056066     0.0004584341781    -5.937676608e-05
                   3      0.001697818065      0.000651035189      0.001567903545    -2.044105793e-05
                   4      0.003102817152     0.0007359045243       0.00301427183     -9.17304435e-06
                   5                   0                   0                   0                   0
                   6     0.0006106496296     0.0003990056066     0.0004584341781     5.937676608e-05
                   7      0.001697818065      0.000651035189      0.001567903545     2.044105793e-05
                   8      0.003102817152     0.0007359045243       0.00301427183      9.17304435e-06
                   9                   0                   0                   0                   0
                  10     0.0006106496296    -0.0003990056066     0.0004584341781     5.937676608e-05
                  11      0.001697818065     -0.000651035189      0.001567903545     2.044105793e-05
                  12      0.003102817152    -0.0007359045243       0.00301427183      9.17304435e-06
                  13                   0                   0                   0                   0
                  14     0.0006106496296    -0.0003990056066     0.0004584341781    -5.937676608e-05
                  15      0.001697818065     -0.000651035189      0.001567903545    -2.044105793e-05
                  16      0.003102817152    -0.0007359045243       0.00301427183     -9.17304435e-06

***** Stress Data ******
          Element No         Integral No           Stress XX           Stress YY           Stress ZZ           Stress XY           Stress XZ           Stress YZ               Mises            YieldFlg
                   1                   1         24.02847205        -13.18449628        -10.84397577         23.40648416        -1.598605241         1.170260257         54.39256363               False
                   1                   2         21.89699839        -15.31596993        -6.581028457        -13.80648416        -1.598605241         4.367470738         42.10462144               False
                   1                   3        -21.89699839         15.31596993         6.581028457        -13.80648416         1.598605241         4.367470738         42.10462144               False
                   1                   4        -24.02847205         13.18449628         10.84397577         23.40648416         1.598605241         1.170260257         54.39256363               False
                   1                   5         24.02847205        -13.18449628        -10.84397577         23.40648416         1.598605241        -1.170260257         54.39256363               False
                   1                   6         21.89699839        -15.31596993        -6.581028457        -13.80648416         1.598605241        -4.367470738         42.10462144               False
                   1                   7        -21.89699839         15.31596993         6.581028457        -13.80648416        -1.598605241        -4.367470738         42.10462144               False
                   1                   8        -24.02847205         13.18449628         10.84397577         23.40648416        -1.598605241        -1.170260257         54.39256363               False
                   2                   1         12.49000754        -11.01534855         -1.47465899         16.55267805         1.048269066          4.77034478         36.23269021               False
                   2                   2         13.88769963        -9.617656462        -4.270043165        -6.952678045         1.048269066         2.673806649         25.00329387               False
                   2                   3        -13.88769963         9.617656462         4.270043165        -6.952678045        -1.048269066         2.673806649         25.00329387               False
                   2                   4        -12.49000754         11.01534855          1.47465899         16.55267805        -1.048269066          4.77034478         36.23269021               False
                   2                   5         12.49000754        -11.01534855         -1.47465899         16.55267805        -1.048269066         -4.77034478         36.23269021               False
                   2                   6         13.88769963        -9.617656462        -4.270043165        -6.952678045        -1.048269066        -2.673806649         25.00329387               False
                   2                   7        -13.88769963         9.617656462         4.270043165        -6.952678045         1.048269066        -2.673806649         25.00329387               False
                   2                   8        -12.49000754         11.01534855          1.47465899         16.55267805         1.048269066         -4.77034478         36.23269021               False
                   3                   1         4.153958995        -3.761317972       -0.3926410228         8.757638484        0.3033695963         1.684338475         16.91778253               False
                   3                   2          4.55845179        -3.356825177        -1.201626613        0.8423615163        0.3033695963         1.077599282         7.491727138               False
                   3                   3         -4.55845179         3.356825177         1.201626613        0.8423615163       -0.3033695963         1.077599282         7.491727138               False
                   3                   4        -4.153958995         3.761317972        0.3926410228         8.757638484       -0.3033695963         1.684338475         16.91778253               False
                   3                   5         4.153958995        -3.761317972       -0.3926410228         8.757638484       -0.3033695963        -1.684338475         16.91778253               False
                   3                   6          4.55845179        -3.356825177        -1.201626613        0.8423615163       -0.3033695963        -1.077599282         7.491727138               False
                   3                   7         -4.55845179         3.356825177         1.201626613        0.8423615163        0.3033695963        -1.077599282         7.491727138               False
                   3                   8        -4.153958995         3.761317972        0.3926410228         8.757638484        0.3033695963        -1.684338475         16.91778253               False

***** Strain Data ******
          Element No         Integral No           Strain XX           Strain YY           Strain ZZ           Strain XY           Strain XZ           Strain YZ
                   1                   1     0.0001487476841    -8.161831031e-05    -6.712937379e-05     0.0002897945658    -1.979225536e-05     1.448893652e-05
                   1                   2     0.0001355528472    -9.481314721e-05    -4.073969997e-05     -0.000170937423    -1.979225536e-05     5.407344724e-05
                   1                   3    -0.0001355528472     9.481314721e-05     4.073969997e-05     -0.000170937423     1.979225536e-05     5.407344724e-05
                   1                   4    -0.0001487476841     8.161831031e-05     6.712937379e-05     0.0002897945658     1.979225536e-05     1.448893652e-05
                   1                   5     0.0001487476841    -8.161831031e-05    -6.712937379e-05     0.0002897945658     1.979225536e-05    -1.448893652e-05
                   1                   6     0.0001355528472    -9.481314721e-05    -4.073969997e-05     -0.000170937423     1.979225536e-05    -5.407344724e-05
                   1                   7    -0.0001355528472     9.481314721e-05     4.073969997e-05     -0.000170937423    -1.979225536e-05    -5.407344724e-05
                   1                   8    -0.0001487476841     8.161831031e-05     6.712937379e-05     0.0002897945658    -1.979225536e-05    -1.448893652e-05
                   2                   1      7.73190943e-05    -6.819025293e-05    -9.128841369e-06     0.0002049379187     1.297856938e-05     5.906141156e-05
                   2                   2     8.597147389e-05    -5.953787334e-05    -2.643360055e-05     -8.60807758e-05     1.297856938e-05     3.310427279e-05
                   2                   3    -8.597147389e-05     5.953787334e-05     2.643360055e-05     -8.60807758e-05    -1.297856938e-05     3.310427279e-05
                   2                   4     -7.73190943e-05     6.819025293e-05     9.128841369e-06     0.0002049379187    -1.297856938e-05     5.906141156e-05
                   2                   5      7.73190943e-05    -6.819025293e-05    -9.128841369e-06     0.0002049379187    -1.297856938e-05    -5.906141156e-05
                   2                   6     8.597147389e-05    -5.953787334e-05    -2.643360055e-05     -8.60807758e-05    -1.297856938e-05    -3.310427279e-05
                   2                   7    -8.597147389e-05     5.953787334e-05     2.643360055e-05     -8.60807758e-05     1.297856938e-05    -3.310427279e-05
                   2                   8     -7.73190943e-05     6.819025293e-05     9.128841369e-06     0.0002049379187     1.297856938e-05    -5.906141156e-05
                   3                   1     2.571498426e-05    -2.328434935e-05    -2.430634903e-06      0.000108427905     3.756004526e-06     2.085371445e-05
                   3                   2     2.821898727e-05    -2.078034633e-05    -7.438640938e-06     1.042923782e-05     3.756004526e-06      1.33417054e-05
                   3                   3    -2.821898727e-05     2.078034633e-05     7.438640938e-06     1.042923782e-05    -3.756004526e-06      1.33417054e-05
                   3                   4    -2.571498426e-05     2.328434935e-05     2.430634903e-06      0.000108427905    -3.756004526e-06     2.085371445e-05
                   3                   5     2.571498426e-05    -2.328434935e-05    -2.430634903e-06      0.000108427905    -3.756004526e-06    -2.085371445e-05
                   3                   6     2.821898727e-05    -2.078034633e-05    -7.438640938e-06     1.042923782e-05    -3.756004526e-06     -1.33417054e-05
                   3                   7    -2.821898727e-05     2.078034633e-05     7.438640938e-06     1.042923782e-05     3.756004526e-06     -1.33417054e-05
                   3                   8    -2.571498426e-05     2.328434935e-05     2.430634903e-06      0.000108427905     3.756004526e-06    -2.085371445e-05

***** Plastic Strain Data ******
          Element No         Integral No          PStrain XX          PStrain YY          PStrain ZZ          PStrain XY          PStrain XZ          PStrain YZ
                   1                   1                   0                   0                   0                   0                   0                   0
                   1                   2                   0                   0                   0                   0                   0                   0
                   1                   3                   0                   0                   0                   0                   0                   0
                   1                   4                   0                   0                   0                   0                   0                   0
                   1                   5                   0                   0                   0                   0                   0                   0
                   1                   6                   0                   0                   0                   0                   0                   0
                   1                   7                   0                   0                   0                   0                   0                   0
                   1                   8                   0                   0                   0                   0                   0                   0
                   2                   1                   0                   0                   0                   0                   0                   0
                   2                   2                   0                   0                   0                   0                   0                   0
                   2                   3                   0                   0                   0                   0                   0                   0
                   2                   4                   0                   0                   0                   0                   0                   0
                   2                   5                   0                   0                   0                   0                   0                   0
                   2                   6                   0                   0                   0                   0                   0                   0
                   2                   7                   0                   0                   0                   0                   0                   0
                   2                   8                   0                   0                   0                   0                   0                   0
                   3                   1                   0                   0                   0                   0                   0                   0
                   3                   2                   0                   0                   0                   0                   0                   0
                   3                   3                   0                   0                   0                   0                   0                   0
                   3                   4                   0                   0                   0                   0                   0                   0
                   3                   5                   0                   0                   0                   0                   0                   0
                   3                   6                   0                   0                   0                   0                   0                   0
                   3                   7                   0                   0                   0                   0                   0                   0
                   3                   8                   0                   0                   0                   0                   0                   0

***** Reaction Force Data ******
              NodeNo           Magnitude             X Force             Y Force             Z Force----------------------------------------------------------------------------------------------------
                   1         7.414517257                -7.2                -1.2         1.301947061
                   2     7.853798031e-15     4.440892099e-15    -4.662936703e-15     -4.49640325e-15
                   3     5.095271325e-14     1.865174681e-14      4.52970994e-14     1.401656569e-14
                   4     1.579268482e-14     2.761679774e-15     2.664535259e-15     1.531934302e-14
                   5         7.414517257                -7.2                -1.2        -1.301947061
                   6     2.178648268e-14     7.993605777e-15     1.976196984e-14      4.49640325e-15
                   7      6.19446994e-15     4.884981308e-15     2.220446049e-16    -3.802513859e-15
                   8     2.277497727e-14     4.884981308e-15     1.865174681e-14    -1.212224765e-14
                   9         7.414517257                 7.2                -1.2        -1.301947061
                  10       1.5996846e-14     1.598721155e-14    -4.440892099e-16     3.330669074e-16
                  11     6.869042356e-15     5.773159728e-15     3.552713679e-15     1.110223025e-15
                  12     3.901921813e-14    -1.901950819e-14    -3.308464613e-14     8.134118379e-15
                  13         7.414517257                 7.2                -1.2         1.301947061
                  14     6.032098246e-15     3.552713679e-15    -2.442490654e-15    -4.218847494e-15
                  15     3.994396681e-14    -5.773159728e-15     -3.17523785e-14    -2.353672812e-14
                  16     2.596870222e-14    -3.302913498e-15    -2.575717417e-14     1.795438798e-16

*Increment 13

***** Displacement Data ******
              NodeNo           Magnitude      X Displacement      Y Displacement      Z Displacement
----------------------------------------------------------------------------------------------------
                   1                   0                   0                   0                   0
                   2     0.0006615370987     0.0004322560739     0.0004966370262    -6.432482992e-05
                   3      0.001839302903     0.0007052881214      0.001698562174    -2.214447942e-05
                   4      0.003361385248     0.0007972299014      0.003265461149    -9.937464713e-06
                   5                   0                   0                   0                   0
                   6     0.0006615370987     0.0004322560739     0.0004966370262     6.432482992e-05
                   7      0.001839302903     0.0007052881214      0.001698562174     2.214447942e-05
                   8      0.003361385248     0.0007972299014      0.003265461149     9.937464713e-06
                   9                   0                   0                   0                   0
                  10     0.0006615370987    -0.0004322560739     0.0004966370262     6.432482992e-05
                  11      0.001839302903    -0.0007052881214      0.001698562174     2.214447942e-05
                  12      0.003361385248    -0.0007972299014      0.003265461149     9.937464713e-06
                  13                   0                   0                   0                   0
                  14     0.0006615370987    -0.0004322560739     0.0004966370262    -6.432482992e-05
                  15      0.001839302903    -0.0007052881214      0.001698562174    -2.214447942e-05
                  16      0.003361385248    -0.0007972299014      0.003265461149    -9.937464713e-06

***** Stress Data ******
          Element No         Integral No           Stress XX           Stress YY           Stress ZZ           Stress XY           Stress XZ           Stress YZ               Mises            YieldFlg
                   1                   1         26.03084472         -14.2832043        -11.74764041         25.35702451        -1.731822344         1.267781945         58.92527726               False
                   1                   2         23.72174826        -16.59230076        -7.129447496        -14.95702451        -1.731822344         4.731426633         45.61333989               False
                   1                   3        -23.72174826         16.59230076         7.129447496        -14.95702451         1.731822344         4.731426633         45.61333989               False
                   1                   4        -26.03084472          14.2832043         11.74764041         25.35702451         1.731822344         1.267781945         58.92527726               False
                   1                   5         26.03084472         -14.2832043        -11.74764041         25.35702451         1.731822344        -1.267781945         58.92527726               False
                   1                   6         23.72174826        -16.59230076        -7.129447496        -14.95702451         1.731822344        -4.731426633         45.61333989               False
                   1                   7        -23.72174826         16.59230076         7.129447496        -14.95702451        -1.731822344        -4.731426633         45.61333989               False
                   1                   8        -26.03084472          14.2832043         11.74764041         25.35702451        -1.731822344        -1.267781945         58.92527726               False
                   2                   1          13.5308415        -11.93329426         -1.59754724         17.93206788         1.135624821         5.167873511         39.25208107               False
                   2                   2         15.04500793        -10.41912783        -4.625880096        -7.532067882         1.135624821         2.896623869         27.08690169               False
                   2                   3        -15.04500793         10.41912783         4.625880096        -7.532067882        -1.135624821         2.896623869         27.08690169               False
                   2                   4         -13.5308415         11.93329426          1.59754724         17.93206788        -1.135624821         5.167873511         39.25208107               False
                   2                   5          13.5308415        -11.93329426         -1.59754724         17.93206788        -1.135624821        -5.167873511         39.25208107               False
                   2                   6         15.04500793        -10.41912783        -4.625880096        -7.532067882        -1.135624821        -2.896623869         27.08690169               False
                   2                   7        -15.04500793         10.41912783         4.625880096        -7.532067882         1.135624821        -2.896623869         27.08690169               False
                   2                   8         -13.5308415         11.93329426          1.59754724         17.93206788         1.135624821        -5.167873511         39.25208107               False
                   3                   1         4.500122245        -4.074761137       -0.4253611081         9.487441691         0.328650396         1.824700014         18.32759774               False
                   3                   2         4.938322773        -3.636560609        -1.301762164        0.9125583094         0.328650396         1.167399222         8.116037733               False
                   3                   3        -4.938322773         3.636560609         1.301762164        0.9125583094        -0.328650396         1.167399222         8.116037733               False
                   3                   4        -4.500122245         4.074761137        0.4253611081         9.487441691        -0.328650396         1.824700014         18.32759774               False
                   3                   5         4.500122245        -4.074761137       -0.4253611081         9.487441691        -0.328650396        -1.824700014         18.32759774               False
                   3                   6         4.938322773        -3.636560609        -1.301762164        0.9125583094        -0.328650396        -1.167399222         8.116037733               False
                   3                   7        -4.938322773         3.636560609         1.301762164        0.9125583094         0.328650396        -1.167399222         8.116037733               False
                   3                   8        -4.500122245         4.074761137        0.4253611081         9.487441691         0.328650396        -1.824700014         18.32759774               False

***** Strain Data ******
          Element No         Integral No           Strain XX           Strain YY           Strain ZZ           Strain XY           Strain XZ           Strain YZ
                   1                   1     0.0001611433244    -8.841983616e-05    -7.272348827e-05      0.000313944113    -2.144160997e-05      1.56963479e-05
                   1                   2     0.0001468489178    -0.0001027142428    -4.413467497e-05    -0.0001851822082    -2.144160997e-05     5.857956784e-05
                   1                   3    -0.0001468489178     0.0001027142428     4.413467497e-05    -0.0001851822082     2.144160997e-05     5.857956784e-05
                   1                   4    -0.0001611433244     8.841983616e-05     7.272348827e-05      0.000313944113     2.144160997e-05      1.56963479e-05
                   1                   5     0.0001611433244    -8.841983616e-05    -7.272348827e-05      0.000313944113     2.144160997e-05     -1.56963479e-05
                   1                   6     0.0001468489178    -0.0001027142428    -4.413467497e-05    -0.0001851822082     2.144160997e-05    -5.857956784e-05
                   1                   7    -0.0001468489178     0.0001027142428     4.413467497e-05    -0.0001851822082    -2.144160997e-05    -5.857956784e-05
                   1                   8    -0.0001611433244     8.841983616e-05     7.272348827e-05      0.000313944113    -2.144160997e-05     -1.56963479e-05
                   2                   1     8.376235215e-05    -7.387277401e-05     -9.88957815e-06     0.0002220160785     1.406011683e-05     6.398319586e-05
                   2                   2     9.313576338e-05    -6.449936278e-05    -2.863640059e-05    -9.325417378e-05     1.406011683e-05     3.586296219e-05
                   2                   3    -9.313576338e-05     6.449936278e-05     2.863640059e-05    -9.325417378e-05    -1.406011683e-05     3.586296219e-05
                   2                   4    -8.376235215e-05     7.387277401e-05      9.88957815e-06     0.0002220160785    -1.406011683e-05     6.398319586e-05
                   2                   5     8.376235215e-05    -7.387277401e-05     -9.88957815e-06     0.0002220160785    -1.406011683e-05    -6.398319586e-05
                   2                   6     9.313576338e-05    -6.449936278e-05    -2.863640059e-05    -9.325417378e-05    -1.406011683e-05    -3.586296219e-05
                   2                   7    -9.313576338e-05     6.449936278e-05     2.863640059e-05    -9.325417378e-05     1.406011683e-05    -3.586296219e-05
                   2                   8    -8.376235215e-05     7.387277401e-05      9.88957815e-06     0.0002220160785     1.406011683e-05    -6.398319586e-05
                   3                   1     2.785789961e-05     -2.52247118e-05    -2.633187812e-06     0.0001174635638     4.069004903e-06     2.259152399e-05
                   3                   2     3.057056955e-05    -2.251204186e-05    -8.058527683e-06     1.129834097e-05     4.069004903e-06     1.445351418e-05
                   3                   3    -3.057056955e-05     2.251204186e-05     8.058527683e-06     1.129834097e-05    -4.069004903e-06     1.445351418e-05
                   3                   4    -2.785789961e-05      2.52247118e-05     2.633187812e-06     0.0001174635638    -4.069004903e-06     2.259152399e-05
                   3                   5     2.785789961e-05     -2.52247118e-05    -2.633187812e-06     0.0001174635638    -4.069004903e-06    -2.259152399e-05
                   3                   6     3.057056955e-05    -2.251204186e-05    -8.058527683e-06     1.129834097e-05    -4.069004903e-06    -1.445351418e-05
                   3                   7    -3.057056955e-05     2.251204186e-05     8.058527683e-06     1.129834097e-05     4.069004903e-06    -1.445351418e-05
                   3                   8    -2.785789961e-05      2.52247118e-05     2.633187812e-06     0.0001174635638     4.069004903e-06    -2.259152399e-05

***** Plastic Strain Data ******
          Element No         Integral No          PStrain XX          PStrain YY          PStrain ZZ          PStrain XY          PStrain XZ          PStrain YZ
                   1                   1                   0                   0                   0                   0                   0                   0
                   1                   2                   0                   0                   0                   0                   0                   0
                   1                   3                   0                   0                   0                   0                   0                   0
                   1                   4                   0                   0                   0                   0                   0                   0
                   1                   5                   0                   0                   0                   0                   0                   0
                   1                   6                   0                   0                   0                   0                   0                   0
                   1                   7                   0                   0                   0                   0                   0                   0
                   1                   8                   0                   0                   0                   0                   0                   0
                   2                   1                   0                   0                   0                   0                   0                   0
                   2                   2                   0                   0                   0                   0                   0                   0
                   2                   3                   0                   0                   0                   0                   0                   0
                   2                   4                   0                   0                   0                   0                   0                   0
                   2                   5                   0                   0                   0                   0                   0                   0
                   2                   6                   0                   0                   0                   0                   0                   0
                   2                   7                   0                   0                   0                   0                   0                   0
                   2                   8                   0                   0                   0                   0                   0                   0
                   3                   1                   0                   0                   0                   0                   0                   0
                   3                   2                   0                   0                   0                   0                   0                   0
                   3                   3                   0                   0                   0                   0                   0                   0
                   3                   4                   0                   0                   0                   0                   0                   0
                   3                   5                   0                   0                   0                   0                   0                   0
                   3                   6                   0                   0                   0                   0                   0                   0
                   3                   7                   0                   0                   0                   0                   0                   0
                   3                   8                   0                   0                   0                   0                   0                   0

***** Reaction Force Data ******
              NodeNo           Magnitude             X Force             Y Force             Z Force----------------------------------------------------------------------------------------------------
                   1         8.032393695                -7.8                -1.3         1.410442649
                   2     1.002295303e-14     9.769962617e-15    -1.554312234e-15    -1.609823386e-15
                   3     7.624763776e-14     1.953992523e-14     6.883382753e-14     2.634004126e-14
                   4     2.649045601e-14     6.369904604e-15     9.769962617e-15     2.378479358e-14
                   5         8.032393695                -7.8                -1.3        -1.410442649
                   6     2.360079297e-14     1.243449788e-14     1.976196984e-14     3.441691376e-15
                   7     3.133431164e-15     1.776356839e-15                   0    -2.581268532e-15
                   8     2.377306875e-14      -2.2759572e-15     1.754152379e-14    -1.588312815e-14
                   9         8.032393695                 7.8                -1.3        -1.410442649
                  10     1.308556916e-14     1.243449788e-14    -3.552713679e-15     1.998401444e-15
                  11      7.38491323e-15     4.884981308e-15    -1.776356839e-15     5.245803791e-15
                  12     4.746597531e-14    -2.334937799e-14    -3.974598428e-14     1.131733596e-14
                  13         8.032393695                 7.8                -1.3         1.410442649
                  14     1.119193469e-14     1.776356839e-15    -7.327471963e-15    -8.271161533e-15
                  15      5.69861443e-14     2.664535259e-15    -4.263256415e-14    -3.771982726e-14
                  16     3.159709628e-14    -7.799316748e-15    -2.908784325e-14    -9.562663161e-15

*Increment 14

***** Displacement Data ******
              NodeNo           Magnitude      X Displacement      Y Displacement      Z Displacement
----------------------------------------------------------------------------------------------------
                   1                   0                   0                   0                   0
                   2     0.0007124245678     0.0004655065411     0.0005348398744    -6.927289376e-05
                   3      0.001980787742     0.0007595410538      0.001829220803    -2.384790092e-05
                   4      0.003619953344     0.0008585552784      0.003516650468    -1.070188508e-05
                   5                   0                   0                   0                   0
                   6     0.0007124245678     0.0004655065411     0.0005348398744     6.927289376e-05
                   7      0.001980787742     0.0007595410538      0.001829220803     2.384790092e-05
                   8      0.003619953344     0.0008585552784      0.003516650468     1.070188508e-05
                   9                   0                   0                   0                   0
                  10     0.0007124245678    -0.0004655065411     0.0005348398744     6.927289376e-05
                  11      0.001980787742    -0.0007595410538      0.001829220803     2.384790092e-05
                  12      0.003619953344    -0.0008585552784      0.003516650468     1.070188508e-05
                  13                   0                   0                   0                   0
                  14     0.0007124245678    -0.0004655065411     0.0005348398744    -6.927289376e-05
                  15      0.001980787742    -0.0007595410538      0.001829220803    -2.384790092e-05
                  16      0.003619953344    -0.0008585552784      0.003516650468    -1.070188508e-05

***** Stress Data ******
          Element No         Integral No           Stress XX           Stress YY           Stress ZZ           Stress XY           Stress XZ           Stress YZ               Mises            YieldFlg
                   1                   1         28.03321739        -15.38191233        -12.65130506         27.30756486        -1.865039447         1.365303634          63.4579909               False
                   1                   2         25.54649812        -17.86863159        -7.677866534        -16.10756486        -1.865039447         5.095382528         49.12205835               False
                   1                   3        -25.54649812         17.86863159         7.677866534        -16.10756486         1.865039447         5.095382528         49.12205835               False
                   1                   4        -28.03321739         15.38191233         12.65130506         27.30756486         1.865039447         1.365303634          63.4579909               False
                   1                   5         28.03321739        -15.38191233        -12.65130506         27.30756486         1.865039447        -1.365303634          63.4579909               False
                   1                   6         25.54649812        -17.86863159        -7.677866534        -16.10756486         1.865039447        -5.095382528         49.12205835               False
                   1                   7        -25.54649812         17.86863159         7.677866534        -16.10756486        -1.865039447        -5.095382528         49.12205835               False
                   1                   8        -28.03321739         15.38191233         12.65130506         27.30756486        -1.865039447        -1.365303634          63.4579909               False
                   2                   1         14.57167546        -12.85123997        -1.720435489         19.31145772         1.222980576         5.565402243         42.27147192               False
                   2                   2         16.20231623        -11.22059921        -4.981717026        -8.111457719         1.222980576          3.11944109         29.17050951               False
                   2                   3        -16.20231623         11.22059921         4.981717026        -8.111457719        -1.222980576          3.11944109         29.17050951               False
                   2                   4        -14.57167546         12.85123997         1.720435489         19.31145772        -1.222980576         5.565402243         42.27147192               False
                   2                   5         14.57167546        -12.85123997        -1.720435489         19.31145772        -1.222980576        -5.565402243         42.27147192               False
                   2                   6         16.20231623        -11.22059921        -4.981717026        -8.111457719        -1.222980576         -3.11944109         29.17050951               False
                   2                   7        -16.20231623         11.22059921         4.981717026        -8.111457719         1.222980576         -3.11944109         29.17050951               False
                   2                   8        -14.57167546         12.85123997         1.720435489         19.31145772         1.222980576        -5.565402243         42.27147192               False
                   3                   1         4.846285494        -4.388204301       -0.4580811933          10.2172449        0.3539311957         1.965061554         19.73741296               False
                   3                   2         5.318193755         -3.91629604        -1.401897715        0.9827551024        0.3539311957         1.257199162         8.740348328               False
                   3                   3        -5.318193755          3.91629604         1.401897715        0.9827551024       -0.3539311957         1.257199162         8.740348328               False
                   3                   4        -4.846285494         4.388204301        0.4580811933          10.2172449       -0.3539311957         1.965061554         19.73741296               False
                   3                   5         4.846285494        -4.388204301       -0.4580811933          10.2172449       -0.3539311957        -1.965061554         19.73741296               False
                   3                   6         5.318193755         -3.91629604        -1.401897715        0.9827551024       -0.3539311957        -1.257199162         8.740348328               False
                   3                   7        -5.318193755          3.91629604         1.401897715        0.9827551024        0.3539311957        -1.257199162         8.740348328               False
                   3                   8        -4.846285494         4.388204301        0.4580811933          10.2172449        0.3539311957        -1.965061554         19.73741296               False

***** Strain Data ******
          Element No         Integral No           Strain XX           Strain YY           Strain ZZ           Strain XY           Strain XZ           Strain YZ
                   1                   1     0.0001735389648    -9.522136202e-05    -7.831760275e-05     0.0003380936601    -2.309096459e-05     1.690375927e-05
                   1                   2     0.0001581449884    -0.0001106153384    -4.752964997e-05    -0.0001994269935    -2.309096459e-05     6.308568844e-05
                   1                   3    -0.0001581449884     0.0001106153384     4.752964997e-05    -0.0001994269935     2.309096459e-05     6.308568844e-05
                   1                   4    -0.0001735389648     9.522136202e-05     7.831760275e-05     0.0003380936601     2.309096459e-05     1.690375927e-05
                   1                   5     0.0001735389648    -9.522136202e-05    -7.831760275e-05     0.0003380936601     2.309096459e-05    -1.690375927e-05
                   1                   6     0.0001581449884    -0.0001106153384    -4.752964997e-05    -0.0001994269935     2.309096459e-05    -6.308568844e-05
                   1                   7    -0.0001581449884     0.0001106153384     4.752964997e-05    -0.0001994269935    -2.309096459e-05    -6.308568844e-05
                   1                   8    -0.0001735389648     9.522136202e-05     7.831760275e-05     0.0003380936601    -2.309096459e-05    -1.690375927e-05
                   2                   1     9.020561001e-05    -7.955529508e-05    -1.065031493e-05     0.0002390942384     1.514166428e-05     6.890498015e-05
                   2                   2     0.0001003000529    -6.946085223e-05    -3.083920064e-05    -0.0001004275718     1.514166428e-05     3.862165159e-05
                   2                   3    -0.0001003000529     6.946085223e-05     3.083920064e-05    -0.0001004275718    -1.514166428e-05     3.862165159e-05
                   2                   4    -9.020561001e-05     7.955529508e-05     1.065031493e-05     0.0002390942384    -1.514166428e-05     6.890498015e-05
                   2                   5     9.020561001e-05    -7.955529508e-05    -1.065031493e-05     0.0002390942384    -1.514166428e-05    -6.890498015e-05
                   2                   6     0.0001003000529    -6.946085223e-05    -3.083920064e-05    -0.0001004275718    -1.514166428e-05    -3.862165159e-05
                   2                   7    -0.0001003000529     6.946085223e-05     3.083920064e-05    -0.0001004275718     1.514166428e-05    -3.862165159e-05
                   2                   8    -9.020561001e-05     7.955529508e-05     1.065031493e-05     0.0002390942384     1.514166428e-05    -6.890498015e-05
                   3                   1     3.000081496e-05    -2.716507424e-05    -2.835740721e-06     0.0001264992225     4.382005281e-06     2.432933352e-05
                   3                   2     3.292215182e-05    -2.424373739e-05    -8.678414428e-06     1.216744412e-05     4.382005281e-06     1.556532296e-05
                   3                   3    -3.292215182e-05     2.424373739e-05     8.678414428e-06     1.216744412e-05    -4.382005281e-06     1.556532296e-05
                   3                   4    -3.000081496e-05     2.716507424e-05     2.835740721e-06     0.0001264992225    -4.382005281e-06     2.432933352e-05
                   3                   5     3.000081496e-05    -2.716507424e-05    -2.835740721e-06     0.0001264992225    -4.382005281e-06    -2.432933352e-05
                   3                   6     3.292215182e-05    -2.424373739e-05    -8.678414428e-06     1.216744412e-05    -4.382005281e-06    -1.556532296e-05
                   3                   7    -3.292215182e-05     2.424373739e-05     8.678414428e-06     1.216744412e-05     4.382005281e-06    -1.556532296e-05
                   3                   8    -3.000081496e-05     2.716507424e-05     2.835740721e-06     0.0001264992225     4.382005281e-06    -2.432933352e-05

***** Plastic Strain Data ******
          Element No         Integral No          PStrain XX          PStrain YY          PStrain ZZ          PStrain XY          PStrain XZ          PStrain YZ
                   1                   1                   0                   0                   0                   0                   0                   0
                   1                   2                   0                   0                   0                   0                   0                   0
                   1                   3                   0                   0                   0                   0                   0                   0
                   1                   4                   0                   0                   0                   0                   0                   0
                   1                   5                   0                   0                   0                   0                   0                   0
                   1                   6                   0                   0                   0                   0                   0                   0
                   1                   7                   0                   0                   0                   0                   0                   0
                   1                   8                   0                   0                   0                   0                   0                   0
                   2                   1                   0                   0                   0                   0                   0                   0
                   2                   2                   0                   0                   0                   0                   0                   0
                   2                   3                   0                   0                   0                   0                   0                   0
                   2                   4                   0                   0                   0                   0                   0                   0
                   2                   5                   0                   0                   0                   0                   0                   0
                   2                   6                   0                   0                   0                   0                   0                   0
                   2                   7                   0                   0                   0                   0                   0                   0
                   2                   8                   0                   0                   0                   0                   0                   0
                   3                   1                   0                   0                   0                   0                   0                   0
                   3                   2                   0                   0                   0                   0                   0                   0
                   3                   3                   0                   0                   0                   0                   0                   0
                   3                   4                   0                   0                   0                   0                   0                   0
                   3                   5                   0                   0                   0                   0                   0                   0
                   3                   6                   0                   0                   0                   0                   0                   0
                   3                   7                   0                   0                   0                   0                   0                   0
                   3                   8                   0                   0                   0                   0                   0                   0

***** Reaction Force Data ******
              NodeNo           Magnitude             X Force             Y Force             Z Force----------------------------------------------------------------------------------------------------
                   1         8.650270133                -8.4                -1.4         1.518938238
                   2     8.265198455e-15     7.105427358e-15    -4.218847494e-15    -1.665334537e-16
                   3     1.019418463e-13     2.975397706e-14     9.192646644e-14     3.250177905e-14
                   4     2.860587862e-14     5.925815394e-15     9.103828802e-15     2.646320663e-14
                   5         8.650270133                -8.4                -1.4        -1.518938238
                   6      2.93924076e-14     1.776356839e-14     2.309263891e-14     3.885780586e-15
                   7     2.208869552e-14     1.376676551e-14     1.643130076e-14    -5.329070518e-15
                   8     3.570506688e-14    -1.887379142e-15     2.930988785e-14    -2.030320356e-14
                   9         8.650270133                 8.4                -1.4        -1.518938238
                  10     2.144146511e-14     2.042810365e-14    -6.217248938e-15     1.942890293e-15
                  11     1.101057073e-14     7.993605777e-15    -3.330669074e-15     6.800116026e-15
                  12     6.825226696e-14     -3.84761667e-14    -5.329070518e-14     1.838633412e-14
                  13         8.650270133                 8.4                -1.4         1.518938238
                  14     1.426668986e-14     5.329070518e-15    -7.993605777e-15    -1.054711873e-14
                  15      7.55327131e-14    -1.776356839e-15    -6.172840017e-14    -4.349298699e-14
                  16     4.951239626e-14    -1.376676551e-14    -4.596323322e-14    -1.222025953e-14

*Increment 15

***** Displacement Data ******
              NodeNo           Magnitude      X Displacement      Y Displacement      Z Displacement
----------------------------------------------------------------------------------------------------
                   1                   0                   0                   0                   0
                   2      0.000763312037     0.0004987570083     0.0005730427226     -7.42209576e-05
                   3      0.002122272581     0.0008137939863      0.001959879431    -2.555132241e-05
                   4       0.00387852144     0.0009198806554      0.003767839787    -1.146630544e-05
                   5                   0                   0                   0                   0
                   6      0.000763312037     0.0004987570083     0.0005730427226      7.42209576e-05
                   7      0.002122272581     0.0008137939863      0.001959879431     2.555132241e-05
                   8       0.00387852144     0.0009198806554      0.003767839787     1.146630544e-05
                   9                   0                   0                   0                   0
                  10      0.000763312037    -0.0004987570083     0.0005730427226      7.42209576e-05
                  11      0.002122272581    -0.0008137939863      0.001959879431     2.555132241e-05
                  12       0.00387852144    -0.0009198806554      0.003767839787     1.146630544e-05
                  13                   0                   0                   0                   0
                  14      0.000763312037    -0.0004987570083     0.0005730427226     -7.42209576e-05
                  15      0.002122272581    -0.0008137939863      0.001959879431    -2.555132241e-05
                  16       0.00387852144    -0.0009198806554      0.003767839787    -1.146630544e-05

***** Stress Data ******
          Element No         Integral No           Stress XX           Stress YY           Stress ZZ           Stress XY           Stress XZ           Stress YZ               Mises            YieldFlg
                   1                   1         30.03559006        -16.48062035        -13.55496971          29.2581052        -1.998256551         1.462825322         67.99070454               False
                   1                   2         27.37124799        -19.14496242        -8.226285572         -17.2581052        -1.998256551         5.459338423          52.6307768               False
                   1                   3        -27.37124799         19.14496242         8.226285572         -17.2581052         1.998256551         5.459338423          52.6307768               False
                   1                   4        -30.03559006         16.48062035         13.55496971          29.2581052         1.998256551         1.462825322         67.99070454               False
                   1                   5         30.03559006        -16.48062035        -13.55496971          29.2581052         1.998256551        -1.462825322         67.99070454               False
                   1                   6         27.37124799        -19.14496242        -8.226285572         -17.2581052         1.998256551        -5.459338423          52.6307768               False
                   1                   7        -27.37124799         19.14496242         8.226285572         -17.2581052        -1.998256551        -5.459338423          52.6307768               False
                   1                   8        -30.03559006         16.48062035         13.55496971          29.2581052        -1.998256551        -1.462825322         67.99070454               False
                   2                   1         15.61250943        -13.76918569        -1.843323738         20.69084756         1.310336332         5.962930975         45.29086277               False
                   2                   2         17.35962453        -12.02207058        -5.337553956        -8.690847556         1.310336332         3.342258311         31.25411733               False
                   2                   3        -17.35962453         12.02207058         5.337553956        -8.690847556        -1.310336332         3.342258311         31.25411733               False
                   2                   4        -15.61250943         13.76918569         1.843323738         20.69084756        -1.310336332         5.962930975         45.29086277               False
                   2                   5         15.61250943        -13.76918569        -1.843323738         20.69084756        -1.310336332        -5.962930975         45.29086277               False
                   2                   6         17.35962453        -12.02207058        -5.337553956        -8.690847556        -1.310336332        -3.342258311         31.25411733               False
                   2                   7        -17.35962453         12.02207058         5.337553956        -8.690847556         1.310336332        -3.342258311         31.25411733               False
                   2                   8        -15.61250943         13.76918569         1.843323738         20.69084756         1.310336332        -5.962930975         45.29086277               False
                   3                   1         5.192448744        -4.701647465       -0.4908012786          10.9470481        0.3792119954         2.105423093         21.14722817               False
                   3                   2         5.698064738        -4.196031471        -1.502033266         1.052951895        0.3792119954         1.346999103         9.364658923               False
                   3                   3        -5.698064738         4.196031471         1.502033266         1.052951895       -0.3792119954         1.346999103         9.364658923               False
                   3                   4        -5.192448744         4.701647465        0.4908012786          10.9470481       -0.3792119954         2.105423093         21.14722817               False
                   3                   5         5.192448744        -4.701647465       -0.4908012786          10.9470481       -0.3792119954        -2.105423093         21.14722817               False
                   3                   6         5.698064738        -4.196031471        -1.502033266         1.052951895       -0.3792119954        -1.346999103         9.364658923               False
                   3                   7        -5.698064738         4.196031471         1.502033266         1.052951895        0.3792119954        -1.346999103         9.364658923               False
                   3                   8        -5.192448744         4.701647465        0.4908012786          10.9470481        0.3792119954        -2.105423093         21.14722817               False

***** Strain Data ******
          Element No         Integral No           Strain XX           Strain YY           Strain ZZ           Strain XY           Strain XZ           Strain YZ
                   1                   1     0.0001859346051    -0.0001020228879    -8.391171723e-05     0.0003622432073     -2.47403192e-05     1.811117065e-05
                   1                   2      0.000169441059     -0.000118516434    -5.092462497e-05    -0.0002136717787     -2.47403192e-05     6.759180905e-05
                   1                   3     -0.000169441059      0.000118516434     5.092462497e-05    -0.0002136717787      2.47403192e-05     6.759180905e-05
                   1                   4    -0.0001859346051     0.0001020228879     8.391171723e-05     0.0003622432073      2.47403192e-05     1.811117065e-05
                   1                   5     0.0001859346051    -0.0001020228879    -8.391171723e-05     0.0003622432073      2.47403192e-05    -1.811117065e-05
                   1                   6      0.000169441059     -0.000118516434    -5.092462497e-05    -0.0002136717787      2.47403192e-05    -6.759180905e-05
                   1                   7     -0.000169441059      0.000118516434     5.092462497e-05    -0.0002136717787     -2.47403192e-05    -6.759180905e-05
                   1                   8    -0.0001859346051     0.0001020228879     8.391171723e-05     0.0003622432073     -2.47403192e-05    -1.811117065e-05
                   2                   1     9.664886787e-05    -8.523781616e-05    -1.141105171e-05     0.0002561723983     1.622321173e-05     7.382676445e-05
                   2                   2     0.0001074643424    -7.442234167e-05    -3.304200068e-05    -0.0001076009697     1.622321173e-05     4.138034099e-05
                   2                   3    -0.0001074643424     7.442234167e-05     3.304200068e-05    -0.0001076009697    -1.622321173e-05     4.138034099e-05
                   2                   4    -9.664886787e-05     8.523781616e-05     1.141105171e-05     0.0002561723983    -1.622321173e-05     7.382676445e-05
                   2                   5     9.664886787e-05    -8.523781616e-05    -1.141105171e-05     0.0002561723983    -1.622321173e-05    -7.382676445e-05
                   2                   6     0.0001074643424    -7.442234167e-05    -3.304200068e-05    -0.0001076009697    -1.622321173e-05    -4.138034099e-05
                   2                   7    -0.0001074643424     7.442234167e-05     3.304200068e-05    -0.0001076009697     1.622321173e-05    -4.138034099e-05
                   2                   8    -9.664886787e-05     8.523781616e-05     1.141105171e-05     0.0002561723983     1.622321173e-05    -7.382676445e-05
                   3                   1     3.214373032e-05    -2.910543669e-05    -3.038293629e-06     0.0001355348813     4.695005658e-06     2.606714306e-05
                   3                   2     3.527373409e-05    -2.597543292e-05    -9.298301173e-06     1.303654728e-05     4.695005658e-06     1.667713175e-05
                   3                   3    -3.527373409e-05     2.597543292e-05     9.298301173e-06     1.303654728e-05    -4.695005658e-06     1.667713175e-05
                   3                   4    -3.214373032e-05     2.910543669e-05     3.038293629e-06     0.0001355348813    -4.695005658e-06     2.606714306e-05
                   3                   5     3.214373032e-05    -2.910543669e-05    -3.038293629e-06     0.0001355348813    -4.695005658e-06    -2.606714306e-05
                   3                   6     3.527373409e-05    -2.597543292e-05    -9.298301173e-06     1.303654728e-05    -4.695005658e-06    -1.667713175e-05
                   3                   7    -3.527373409e-05     2.597543292e-05     9.298301173e-06     1.303654728e-05     4.695005658e-06    -1.667713175e-05
                   3                   8    -3.214373032e-05     2.910543669e-05     3.038293629e-06     0.0001355348813     4.695005658e-06    -2.606714306e-05

***** Plastic Strain Data ******
          Element No         Integral No          PStrain XX          PStrain YY          PStrain ZZ          PStrain XY          PStrain XZ          PStrain YZ
                   1                   1                   0                   0                   0                   0                   0                   0
                   1                   2                   0                   0                   0                   0                   0                   0
                   1                   3                   0                   0                   0                   0                   0                   0
                   1                   4                   0                   0                   0                   0                   0                   0
                   1                   5                   0                   0                   0                   0                   0                   0
                   1                   6                   0                   0                   0                   0                   0                   0
                   1                   7                   0                   0                   0                   0                   0                   0
                   1                   8                   0                   0                   0                   0                   0                   0
                   2                   1                   0                   0                   0                   0                   0                   0
                   2                   2                   0                   0                   0                   0                   0                   0
                   2                   3                   0                   0                   0                   0                   0                   0
                   2                   4                   0                   0                   0                   0                   0                   0
                   2                   5                   0                   0                   0                   0                   0                   0
                   2                   6                   0                   0                   0                   0                   0                   0
                   2                   7                   0                   0                   0                   0                   0                   0
                   2                   8                   0                   0                   0                   0                   0                   0
                   3                   1                   0                   0                   0                   0                   0                   0
                   3                   2                   0                   0                   0                   0                   0                   0
                   3                   3                   0                   0                   0                   0                   0                   0
                   3                   4                   0                   0                   0                   0                   0                   0
                   3                   5                   0                   0                   0                   0                   0                   0
                   3                   6                   0                   0                   0                   0                   0                   0
                   3                   7                   0                   0                   0                   0                   0                   0
                   3                   8                   0                   0                   0                   0                   0                   0

***** Reaction Force Data ******
              NodeNo           Magnitude             X Force             Y Force             Z Force----------------------------------------------------------------------------------------------------
                   1         9.268146571                  -9                -1.5         1.627433826
                   2     9.211506452e-15     7.105427358e-15    -5.329070518e-15     2.442490654e-15
                   3     1.091337409e-13     3.286260153e-14     9.570122472e-14     4.088396288e-14
                   4     2.746021478e-14     1.317002063e-14     4.440892099e-16     2.409183963e-14
                   5         9.268146571                  -9                -1.5        -1.627433826
                   6      2.77777712e-14     2.220446049e-14     1.398881011e-14     9.103828802e-15
                   7     8.608525006e-15     4.440892099e-15    -7.327471963e-15     8.326672685e-16
                   8     3.822558495e-14    -6.938893904e-15     2.930988785e-14    -2.353672812e-14
                   9         9.268146571                   9                -1.5        -1.627433826
                  10     1.816020821e-14     1.776356839e-14     1.776356839e-15    -3.330669074e-15
                  11     1.062164937e-14     2.664535259e-15     9.325873407e-15    -4.329869796e-15
                  12     6.457356498e-14     -3.34593464e-14    -5.373479439e-14     1.275889117e-14
                  13         9.268146571                   9                -1.5         1.627433826
                  14     1.377616338e-14     2.664535259e-15    -5.551115123e-15    -1.232347557e-14
                  15     8.137742126e-14                   0    -6.838973832e-14    -4.410360965e-14
                  16     3.077902408e-14    -6.827871601e-15    -2.953193246e-14    -5.347285115e-15

*Increment 16

***** Displacement Data ******
              NodeNo           Magnitude      X Displacement      Y Displacement      Z Displacement
----------------------------------------------------------------------------------------------------
                   1                   0                   0                   0                   0
                   2     0.0008141995061     0.0005320074755     0.0006112455708    -7.916902144e-05
                   3       0.00226375742     0.0008680469187       0.00209053806     -2.72547439e-05
                   4      0.004137089536     0.0009812060325      0.004019029107     -1.22307258e-05
                   5                   0                   0                   0                   0
                   6     0.0008141995061     0.0005320074755     0.0006112455708     7.916902144e-05
                   7       0.00226375742     0.0008680469187       0.00209053806      2.72547439e-05
                   8      0.004137089536     0.0009812060325      0.004019029107      1.22307258e-05
                   9                   0                   0                   0                   0
                  10     0.0008141995061    -0.0005320074755     0.0006112455708     7.916902144e-05
                  11       0.00226375742    -0.0008680469187       0.00209053806      2.72547439e-05
                  12      0.004137089536    -0.0009812060325      0.004019029107      1.22307258e-05
                  13                   0                   0                   0                   0
                  14     0.0008141995061    -0.0005320074755     0.0006112455708    -7.916902144e-05
                  15       0.00226375742    -0.0008680469187       0.00209053806     -2.72547439e-05
                  16      0.004137089536    -0.0009812060325      0.004019029107     -1.22307258e-05

***** Stress Data ******
          Element No         Integral No           Stress XX           Stress YY           Stress ZZ           Stress XY           Stress XZ           Stress YZ               Mises            YieldFlg
                   1                   1         32.03796273        -17.57932837        -14.45863435         31.20864555        -2.131473654          1.56034701         72.52341817               False
                   1                   2         29.19599786        -20.42129325         -8.77470461        -18.40864555        -2.131473654         5.823294318         56.13949525               False
                   1                   3        -29.19599786         20.42129325          8.77470461        -18.40864555         2.131473654         5.823294318         56.13949525               False
                   1                   4        -32.03796273         17.57932837         14.45863435         31.20864555         2.131473654          1.56034701         72.52341817               False
                   1                   5         32.03796273        -17.57932837        -14.45863435         31.20864555         2.131473654         -1.56034701         72.52341817               False
                   1                   6         29.19599786        -20.42129325         -8.77470461        -18.40864555         2.131473654        -5.823294318         56.13949525               False
                   1                   7        -29.19599786         20.42129325          8.77470461        -18.40864555        -2.131473654        -5.823294318         56.13949525               False
                   1                   8        -32.03796273         17.57932837         14.45863435         31.20864555        -2.131473654         -1.56034701         72.52341817               False
                   2                   1         16.65334339         -14.6871314        -1.966211987         22.07023739         1.397692087         6.360459706         48.31025362               False
                   2                   2         18.51693284        -12.82354195        -5.693390887        -9.270237393         1.397692087         3.565075532         33.33772516               False
                   2                   3        -18.51693284         12.82354195         5.693390887        -9.270237393        -1.397692087         3.565075532         33.33772516               False
                   2                   4        -16.65334339          14.6871314         1.966211987         22.07023739        -1.397692087         6.360459706         48.31025362               False
                   2                   5         16.65334339         -14.6871314        -1.966211987         22.07023739        -1.397692087        -6.360459706         48.31025362               False
                   2                   6         18.51693284        -12.82354195        -5.693390887        -9.270237393        -1.397692087        -3.565075532         33.33772516               False
                   2                   7        -18.51693284         12.82354195         5.693390887        -9.270237393         1.397692087        -3.565075532         33.33772516               False
                   2                   8        -16.65334339          14.6871314         1.966211987         22.07023739         1.397692087        -6.360459706         48.31025362               False
                   3                   1         5.538611993         -5.01509063       -0.5235213638         11.67685131        0.4044927951         2.245784633         22.55704338               False
                   3                   2          6.07793572        -4.475766903        -1.602168817         1.123148688        0.4044927951         1.436799043         9.988969518               False
                   3                   3         -6.07793572         4.475766903         1.602168817         1.123148688       -0.4044927951         1.436799043         9.988969518               False
                   3                   4        -5.538611993          5.01509063        0.5235213638         11.67685131       -0.4044927951         2.245784633         22.55704338               False
                   3                   5         5.538611993         -5.01509063       -0.5235213638         11.67685131       -0.4044927951        -2.245784633         22.55704338               False
                   3                   6          6.07793572        -4.475766903        -1.602168817         1.123148688       -0.4044927951        -1.436799043         9.988969518               False
                   3                   7         -6.07793572         4.475766903         1.602168817         1.123148688        0.4044927951        -1.436799043         9.988969518               False
                   3                   8        -5.538611993          5.01509063        0.5235213638         11.67685131        0.4044927951        -2.245784633         22.55704338               False

***** Strain Data ******
          Element No         Integral No           Strain XX           Strain YY           Strain ZZ           Strain XY           Strain XZ           Strain YZ
                   1                   1     0.0001983302455    -0.0001088244137    -8.950583172e-05     0.0003863927544    -2.638967381e-05     1.931858203e-05
                   1                   2     0.0001807371296    -0.0001264175296    -5.431959997e-05     -0.000227916564    -2.638967381e-05     7.209792965e-05
                   1                   3    -0.0001807371296     0.0001264175296     5.431959997e-05     -0.000227916564     2.638967381e-05     7.209792965e-05
                   1                   4    -0.0001983302455     0.0001088244137     8.950583172e-05     0.0003863927544     2.638967381e-05     1.931858203e-05
                   1                   5     0.0001983302455    -0.0001088244137    -8.950583172e-05     0.0003863927544     2.638967381e-05    -1.931858203e-05
                   1                   6     0.0001807371296    -0.0001264175296    -5.431959997e-05     -0.000227916564     2.638967381e-05    -7.209792965e-05
                   1                   7    -0.0001807371296     0.0001264175296     5.431959997e-05     -0.000227916564    -2.638967381e-05    -7.209792965e-05
                   1                   8    -0.0001983302455     0.0001088244137     8.950583172e-05     0.0003863927544    -2.638967381e-05    -1.931858203e-05
                   2                   1     0.0001030921257    -9.092033724e-05    -1.217178849e-05     0.0002732505582     1.730475918e-05     7.874854875e-05
                   2                   2     0.0001146286318    -7.938383112e-05    -3.524480073e-05    -0.0001147743677     1.730475918e-05     4.413903039e-05
                   2                   3    -0.0001146286318     7.938383112e-05     3.524480073e-05    -0.0001147743677    -1.730475918e-05     4.413903039e-05
                   2                   4    -0.0001030921257     9.092033724e-05     1.217178849e-05     0.0002732505582    -1.730475918e-05     7.874854875e-05
                   2                   5     0.0001030921257    -9.092033724e-05    -1.217178849e-05     0.0002732505582    -1.730475918e-05    -7.874854875e-05
                   2                   6     0.0001146286318    -7.938383112e-05    -3.524480073e-05    -0.0001147743677    -1.730475918e-05    -4.413903039e-05
                   2                   7    -0.0001146286318     7.938383112e-05     3.524480073e-05    -0.0001147743677     1.730475918e-05    -4.413903039e-05
                   2                   8    -0.0001030921257     9.092033724e-05     1.217178849e-05     0.0002732505582     1.730475918e-05    -7.874854875e-05
                   3                   1     3.428664567e-05    -3.104579914e-05    -3.240846538e-06       0.00014457054     5.008006035e-06      2.78049526e-05
                   3                   2     3.762531636e-05    -2.770712845e-05    -9.918187918e-06     1.390565043e-05     5.008006035e-06     1.778894053e-05
                   3                   3    -3.762531636e-05     2.770712845e-05     9.918187918e-06     1.390565043e-05    -5.008006035e-06     1.778894053e-05
                   3                   4    -3.428664567e-05     3.104579914e-05     3.240846538e-06       0.00014457054    -5.008006035e-06      2.78049526e-05
                   3                   5     3.428664567e-05    -3.104579914e-05    -3.240846538e-06       0.00014457054    -5.008006035e-06     -2.78049526e-05
                   3                   6     3.762531636e-05    -2.770712845e-05    -9.918187918e-06     1.390565043e-05    -5.008006035e-06    -1.778894053e-05
                   3                   7    -3.762531636e-05     2.770712845e-05     9.918187918e-06     1.390565043e-05     5.008006035e-06    -1.778894053e-05
                   3                   8    -3.428664567e-05     3.104579914e-05     3.240846538e-06       0.00014457054     5.008006035e-06     -2.78049526e-05

***** Plastic Strain Data ******
          Element No         Integral No          PStrain XX          PStrain YY          PStrain ZZ          PStrain XY          PStrain XZ          PStrain YZ
                   1                   1                   0                   0                   0                   0                   0                   0
                   1                   2                   0                   0                   0                   0                   0                   0
                   1                   3                   0                   0                   0                   0                   0                   0
                   1                   4                   0                   0                   0                   0                   0                   0
                   1                   5                   0                   0                   0                   0                   0                   0
                   1                   6                   0                   0                   0                   0                   0                   0
                   1                   7                   0                   0                   0                   0                   0                   0
                   1                   8                   0                   0                   0                   0                   0                   0
                   2                   1                   0                   0                   0                   0                   0                   0
                   2                   2                   0                   0                   0                   0                   0                   0
                   2                   3                   0                   0                   0                   0                   0                   0
                   2                   4                   0                   0                   0                   0                   0                   0
                   2                   5                   0                   0                   0                   0                   0                   0
                   2                   6                   0                   0                   0                   0                   0                   0
                   2                   7                   0                   0                   0                   0                   0                   0
                   2                   8                   0                   0                   0                   0                   0                   0
                   3                   1                   0                   0                   0                   0                   0                   0
                   3                   2                   0                   0                   0                   0                   0                   0
                   3                   3                   0                   0                   0                   0                   0                   0
                   3                   4                   0                   0                   0                   0                   0                   0
                   3                   5                   0                   0                   0                   0                   0                   0
                   3                   6                   0                   0                   0                   0                   0                   0
                   3                   7                   0                   0                   0                   0                   0                   0
                   3                   8                   0                   0                   0                   0                   0                   0

***** Reaction Force Data ******
              NodeNo           Magnitude             X Force             Y Force             Z Force----------------------------------------------------------------------------------------------------
                   1         9.886023009                -9.6                -1.6         1.735929415
                   2     1.370394831e-14     2.664535259e-15    -1.243449788e-14    -5.107025913e-15
                   3     7.722026637e-14      2.70894418e-14     6.727951529e-14     2.650657471e-14
                   4     3.406871287e-14     1.959543638e-14    -9.769962617e-15     2.610064942e-14
                   5         9.886023009                -9.6                -1.6        -1.735929415
                   6     2.077660108e-14     1.065814104e-14     1.310063169e-14     1.210143097e-14
                   7     4.897128981e-14     7.549516567e-15    -4.152234112e-14     2.484124018e-14
                   8       9.3811613e-15       2.2759572e-15    -7.993605777e-15    -4.350686478e-15
                   9         9.886023009                 9.6                -1.6        -1.735929415
                  10      1.59021767e-14     5.329070518e-15     1.154631946e-14    -9.547918012e-15
                  11     4.632916916e-14    -3.996802889e-15      3.61932706e-14    -2.864375404e-14
                  12     2.919467896e-14     -2.33285613e-14    -1.731947918e-14    -2.853620118e-15
                  13         9.886023009                 9.6                -1.6         1.735929415
                  14     1.009021113e-14    -7.993605777e-15     2.664535259e-15    -5.551115123e-15
                  15     5.711178271e-14     4.440892099e-16    -4.862776848e-14    -2.994826609e-14
                  16     1.412987296e-14     6.578071421e-15    -1.154631946e-14    -4.802581943e-15

*Increment 17

***** Displacement Data ******
              NodeNo           Magnitude      X Displacement      Y Displacement      Z Displacement
----------------------------------------------------------------------------------------------------
                   1                   0                   0                   0                   0
                   2     0.0008650869752     0.0005652579427     0.0006494484189    -8.411708528e-05
                   3      0.002405242258     0.0009222998511      0.002221196689     -2.89581654e-05
                   4      0.004395657632      0.001042531409      0.004270218426    -1.299514616e-05
                   5                   0                   0                   0                   0
                   6     0.0008650869752     0.0005652579427     0.0006494484189     8.411708528e-05
                   7      0.002405242258     0.0009222998511      0.002221196689      2.89581654e-05
                   8      0.004395657632      0.001042531409      0.004270218426     1.299514616e-05
                   9                   0                   0                   0                   0
                  10     0.0008650869752    -0.0005652579427     0.0006494484189     8.411708528e-05
                  11      0.002405242258    -0.0009222998511      0.002221196689      2.89581654e-05
                  12      0.004395657632     -0.001042531409      0.004270218426     1.299514616e-05
                  13                   0                   0                   0                   0
                  14     0.0008650869752    -0.0005652579427     0.0006494484189    -8.411708528e-05
                  15      0.002405242258    -0.0009222998511      0.002221196689     -2.89581654e-05
                  16      0.004395657632     -0.001042531409      0.004270218426    -1.299514616e-05

***** Stress Data ******
          Element No         Integral No           Stress XX           Stress YY           Stress ZZ           Stress XY           Stress XZ           Stress YZ               Mises            YieldFlg
                   1                   1          34.0403354         -18.6780364          -15.362299          33.1591859        -2.264690757         1.657868698         77.05613181               False
                   1                   2         31.02074772        -21.69762407        -9.323123648         -19.5591859        -2.264690757         6.187250213         59.64821371               False
                   1                   3        -31.02074772         21.69762407         9.323123648         -19.5591859         2.264690757         6.187250213         59.64821371               False
                   1                   4         -34.0403354          18.6780364           15.362299          33.1591859         2.264690757         1.657868698         77.05613181               False
                   1                   5          34.0403354         -18.6780364          -15.362299          33.1591859         2.264690757        -1.657868698         77.05613181               False
                   1                   6         31.02074772        -21.69762407        -9.323123648         -19.5591859         2.264690757        -6.187250213         59.64821371               False
                   1                   7        -31.02074772         21.69762407         9.323123648         -19.5591859        -2.264690757        -6.187250213         59.64821371               False
                   1                   8         -34.0403354          18.6780364           15.362299          33.1591859        -2.264690757        -1.657868698         77.05613181               False
                   2                   1         17.69417735        -15.60507711        -2.089100236         23.44962723         1.485047843         6.757988438         51.32964447               False
                   2                   2         19.67424114        -13.62501332        -6.049227817        -9.849627231         1.485047843         3.787892752         35.42133298               False
                   2                   3        -19.67424114         13.62501332         6.049227817        -9.849627231        -1.485047843         3.787892752         35.42133298               False
                   2                   4        -17.69417735         15.60507711         2.089100236         23.44962723        -1.485047843         6.757988438         51.32964447               False
                   2                   5         17.69417735        -15.60507711        -2.089100236         23.44962723        -1.485047843        -6.757988438         51.32964447               False
                   2                   6         19.67424114        -13.62501332        -6.049227817        -9.849627231        -1.485047843        -3.787892752         35.42133298               False
                   2                   7        -19.67424114         13.62501332         6.049227817        -9.849627231         1.485047843        -3.787892752         35.42133298               False
                   2                   8        -17.69417735         15.60507711         2.089100236         23.44962723         1.485047843        -6.757988438         51.32964447               False
                   3                   1         5.884775243        -5.328533794        -0.556241449         12.40665452        0.4297735948         2.386146172         23.96685859               False
                   3                   2         6.457806703        -4.755502334        -1.702304369         1.193345481        0.4297735948         1.526598983         10.61328011               False
                   3                   3        -6.457806703         4.755502334         1.702304369         1.193345481       -0.4297735948         1.526598983         10.61328011               False
                   3                   4        -5.884775243         5.328533794         0.556241449         12.40665452       -0.4297735948         2.386146172         23.96685859               False
                   3                   5         5.884775243        -5.328533794        -0.556241449         12.40665452       -0.4297735948        -2.386146172         23.96685859               False
                   3                   6         6.457806703        -4.755502334        -1.702304369         1.193345481       -0.4297735948        -1.526598983         10.61328011               False
                   3                   7        -6.457806703         4.755502334         1.702304369         1.193345481        0.4297735948        -1.526598983         10.61328011               False
                   3                   8        -5.884775243         5.328533794         0.556241449         12.40665452        0.4297735948        -2.386146172         23.96685859               False

***** Strain Data ******
          Element No         Integral No           Strain XX           Strain YY           Strain ZZ           Strain XY           Strain XZ           Strain YZ
                   1                   1     0.0002107258858    -0.0001156259396     -9.50999462e-05     0.0004105423016    -2.803902843e-05      2.05259934e-05
                   1                   2     0.0001920332002    -0.0001343186252    -5.771457496e-05    -0.0002421613492    -2.803902843e-05     7.660405025e-05
                   1                   3    -0.0001920332002     0.0001343186252     5.771457496e-05    -0.0002421613492     2.803902843e-05     7.660405025e-05
                   1                   4    -0.0002107258858     0.0001156259396      9.50999462e-05     0.0004105423016     2.803902843e-05      2.05259934e-05
                   1                   5     0.0002107258858    -0.0001156259396     -9.50999462e-05     0.0004105423016     2.803902843e-05     -2.05259934e-05
                   1                   6     0.0001920332002    -0.0001343186252    -5.771457496e-05    -0.0002421613492     2.803902843e-05    -7.660405025e-05
                   1                   7    -0.0001920332002     0.0001343186252     5.771457496e-05    -0.0002421613492    -2.803902843e-05    -7.660405025e-05
                   1                   8    -0.0002107258858     0.0001156259396      9.50999462e-05     0.0004105423016    -2.803902843e-05     -2.05259934e-05
                   2                   1     0.0001095353836    -9.660285831e-05    -1.293252527e-05     0.0002903287181     1.838630663e-05     8.367033304e-05
                   2                   2     0.0001217929213    -8.434532056e-05    -3.744760077e-05    -0.0001219477657     1.838630663e-05     4.689771979e-05
                   2                   3    -0.0001217929213     8.434532056e-05     3.744760077e-05    -0.0001219477657    -1.838630663e-05     4.689771979e-05
                   2                   4    -0.0001095353836     9.660285831e-05     1.293252527e-05     0.0002903287181    -1.838630663e-05     8.367033304e-05
                   2                   5     0.0001095353836    -9.660285831e-05    -1.293252527e-05     0.0002903287181    -1.838630663e-05    -8.367033304e-05
                   2                   6     0.0001217929213    -8.434532056e-05    -3.744760077e-05    -0.0001219477657    -1.838630663e-05    -4.689771979e-05
                   2                   7    -0.0001217929213     8.434532056e-05     3.744760077e-05    -0.0001219477657     1.838630663e-05    -4.689771979e-05
                   2                   8    -0.0001095353836     9.660285831e-05     1.293252527e-05     0.0002903287181     1.838630663e-05    -8.367033304e-05
                   3                   1     3.642956103e-05    -3.298616158e-05    -3.443399446e-06     0.0001536061988     5.321006412e-06     2.954276214e-05
                   3                   2     3.997689864e-05    -2.943882397e-05    -1.053807466e-05     1.477475358e-05     5.321006412e-06     1.890074931e-05
                   3                   3    -3.997689864e-05     2.943882397e-05     1.053807466e-05     1.477475358e-05    -5.321006412e-06     1.890074931e-05
                   3                   4    -3.642956103e-05     3.298616158e-05     3.443399446e-06     0.0001536061988    -5.321006412e-06     2.954276214e-05
                   3                   5     3.642956103e-05    -3.298616158e-05    -3.443399446e-06     0.0001536061988    -5.321006412e-06    -2.954276214e-05
                   3                   6     3.997689864e-05    -2.943882397e-05    -1.053807466e-05     1.477475358e-05    -5.321006412e-06    -1.890074931e-05
                   3                   7    -3.997689864e-05     2.943882397e-05     1.053807466e-05     1.477475358e-05     5.321006412e-06    -1.890074931e-05
                   3                   8    -3.642956103e-05     3.298616158e-05     3.443399446e-06     0.0001536061988     5.321006412e-06    -2.954276214e-05

***** Plastic Strain Data ******
          Element No         Integral No          PStrain XX          PStrain YY          PStrain ZZ          PStrain XY          PStrain XZ          PStrain YZ
                   1                   1                   0                   0                   0                   0                   0                   0
                   1                   2                   0                   0                   0                   0                   0                   0
                   1                   3                   0                   0                   0                   0                   0                   0
                   1                   4                   0                   0                   0                   0                   0                   0
                   1                   5                   0                   0                   0                   0                   0                   0
                   1                   6                   0                   0                   0                   0                   0                   0
                   1                   7                   0                   0                   0                   0                   0                   0
                   1                   8                   0                   0                   0                   0                   0                   0
                   2                   1                   0                   0                   0                   0                   0                   0
                   2                   2                   0                   0                   0                   0                   0                   0
                   2                   3                   0                   0                   0                   0                   0                   0
                   2                   4                   0                   0                   0                   0                   0                   0
                   2                   5                   0                   0                   0                   0                   0                   0
                   2                   6                   0                   0                   0                   0                   0                   0
                   2                   7                   0                   0                   0                   0                   0                   0
                   2                   8                   0                   0                   0                   0                   0                   0
                   3                   1                   0                   0                   0                   0                   0                   0
                   3                   2                   0                   0                   0                   0                   0                   0
                   3                   3                   0                   0                   0                   0                   0                   0
                   3                   4                   0                   0                   0                   0                   0                   0
                   3                   5                   0                   0                   0                   0                   0                   0
                   3                   6                   0                   0                   0                   0                   0                   0
                   3                   7                   0                   0                   0                   0                   0                   0
                   3                   8                   0                   0                   0                   0                   0                   0

***** Reaction Force Data ******
              NodeNo           Magnitude             X Force             Y Force             Z Force----------------------------------------------------------------------------------------------------
                   1         10.50389945               -10.2                -1.7         1.844425003
                   2     6.336057489e-15     4.440892099e-15    -3.996802889e-15    -2.109423747e-15
                   3     1.079903819e-13     4.662936703e-14     9.148237723e-14     3.344546862e-14
                   4     3.157029469e-14     1.011690731e-14    -6.661338148e-16     2.989795911e-14
                   5         10.50389945               -10.2                -1.7        -1.844425003
                   6     2.619938158e-14      1.33226763e-14     1.976196984e-14     1.088018564e-14
                   7     2.068540952e-14     1.509903313e-14    -1.398881011e-14     2.053912596e-15
                   8     2.834789121e-14    -1.665334537e-15     2.087219286e-14    -1.910971381e-14
                   9         10.50389945                10.2                -1.7        -1.844425003
                  10     1.308556916e-14     1.154631946e-14     2.664535259e-15    -5.551115123e-15
                  11     1.423774459e-14    -6.661338148e-15     1.065814104e-14    -6.689093723e-15
                  12     6.607625625e-14    -3.815003868e-14    -5.173639295e-14     1.529679161e-14
                  13         10.50389945                10.2                -1.7         1.844425003
                  14     1.172639401e-14    -5.329070518e-15     4.440892099e-16    -1.043609643e-14
                  15     8.278425089e-14      1.33226763e-15     -6.75015599e-14    -4.790612351e-14
                  16     2.917212155e-14     1.276756478e-15    -2.886579864e-14    -4.018486932e-15

*Increment 18

***** Displacement Data ******
              NodeNo           Magnitude      X Displacement      Y Displacement      Z Displacement
----------------------------------------------------------------------------------------------------
                   1                   0                   0                   0                   0
                   2     0.0009159744444       0.00059850841     0.0006876512671    -8.906514912e-05
                   3      0.002546727097     0.0009765527835      0.002351855318    -3.066158689e-05
                   4      0.004654225728      0.001103856787      0.004521407745    -1.375956653e-05
                   5                   0                   0                   0                   0
                   6     0.0009159744444       0.00059850841     0.0006876512671     8.906514912e-05
                   7      0.002546727097     0.0009765527835      0.002351855318     3.066158689e-05
                   8      0.004654225728      0.001103856787      0.004521407745     1.375956653e-05
                   9                   0                   0                   0                   0
                  10     0.0009159744444      -0.00059850841     0.0006876512671     8.906514912e-05
                  11      0.002546727097    -0.0009765527835      0.002351855318     3.066158689e-05
                  12      0.004654225728     -0.001103856787      0.004521407745     1.375956653e-05
                  13                   0                   0                   0                   0
                  14     0.0009159744444      -0.00059850841     0.0006876512671    -8.906514912e-05
                  15      0.002546727097    -0.0009765527835      0.002351855318    -3.066158689e-05
                  16      0.004654225728     -0.001103856787      0.004521407745    -1.375956653e-05

***** Stress Data ******
          Element No         Integral No           Stress XX           Stress YY           Stress ZZ           Stress XY           Stress XZ           Stress YZ               Mises            YieldFlg
                   1                   1         36.04270807        -19.77674442        -16.26596365         35.10972624        -2.397907861         1.755390386         81.58884544               False
                   1                   2         32.84549759         -22.9739549        -9.871542686        -20.70972624        -2.397907861         6.551206108         63.15693216               False
                   1                   3        -32.84549759          22.9739549         9.871542686        -20.70972624         2.397907861         6.551206108         63.15693216               False
                   1                   4        -36.04270807         19.77674442         16.26596365         35.10972624         2.397907861         1.755390386         81.58884544               False
                   1                   5         36.04270807        -19.77674442        -16.26596365         35.10972624         2.397907861        -1.755390386         81.58884544               False
                   1                   6         32.84549759         -22.9739549        -9.871542686        -20.70972624         2.397907861        -6.551206108         63.15693216               False
                   1                   7        -32.84549759          22.9739549         9.871542686        -20.70972624        -2.397907861        -6.551206108         63.15693216               False
                   1                   8        -36.04270807         19.77674442         16.26596365         35.10972624        -2.397907861        -1.755390386         81.58884544               False
                   2                   1         18.73501131        -16.52302282        -2.211988486         24.82901707         1.572403598          7.15551717         54.34903532               False
                   2                   2         20.83154944        -14.42648469        -6.405064748        -10.42901707         1.572403598         4.010709973          37.5049408               False
                   2                   3        -20.83154944         14.42648469         6.405064748        -10.42901707        -1.572403598         4.010709973          37.5049408               False
                   2                   4        -18.73501131         16.52302282         2.211988486         24.82901707        -1.572403598          7.15551717         54.34903532               False
                   2                   5         18.73501131        -16.52302282        -2.211988486         24.82901707        -1.572403598         -7.15551717         54.34903532               False
                   2                   6         20.83154944        -14.42648469        -6.405064748        -10.42901707        -1.572403598        -4.010709973          37.5049408               False
                   2                   7        -20.83154944         14.42648469         6.405064748        -10.42901707         1.572403598        -4.010709973          37.5049408               False
                   2                   8        -18.73501131         16.52302282         2.211988486         24.82901707         1.572403598         -7.15551717         54.34903532               False
                   3                   1         6.230938493        -5.641976958       -0.5889615343         13.13645773        0.4550543945         2.526507712          25.3766738               False
                   3                   2         6.837677685        -5.035237766         -1.80243992         1.263542274        0.4550543945         1.616398923         11.23759071               False
                   3                   3        -6.837677685         5.035237766          1.80243992         1.263542274       -0.4550543945         1.616398923         11.23759071               False
                   3                   4        -6.230938493         5.641976958        0.5889615343         13.13645773       -0.4550543945         2.526507712          25.3766738               False
                   3                   5         6.230938493        -5.641976958       -0.5889615343         13.13645773       -0.4550543945        -2.526507712          25.3766738               False
                   3                   6         6.837677685        -5.035237766         -1.80243992         1.263542274       -0.4550543945        -1.616398923         11.23759071               False
                   3                   7        -6.837677685         5.035237766          1.80243992         1.263542274        0.4550543945        -1.616398923         11.23759071               False
                   3                   8        -6.230938493         5.641976958        0.5889615343         13.13645773        0.4550543945        -2.526507712          25.3766738               False

***** Strain Data ******
          Element No         Integral No           Strain XX           Strain YY           Strain ZZ           Strain XY           Strain XZ           Strain YZ
                   1                   1     0.0002231215261    -0.0001224274655    -0.0001006940607     0.0004346918487    -2.968838304e-05     2.173340478e-05
                   1                   2     0.0002033292708    -0.0001422197208    -6.110954996e-05    -0.0002564061345    -2.968838304e-05     8.111017086e-05
                   1                   3    -0.0002033292708     0.0001422197208     6.110954996e-05    -0.0002564061345     2.968838304e-05     8.111017086e-05
                   1                   4    -0.0002231215261     0.0001224274655     0.0001006940607     0.0004346918487     2.968838304e-05     2.173340478e-05
                   1                   5     0.0002231215261    -0.0001224274655    -0.0001006940607     0.0004346918487     2.968838304e-05    -2.173340478e-05
                   1                   6     0.0002033292708    -0.0001422197208    -6.110954996e-05    -0.0002564061345     2.968838304e-05    -8.111017086e-05
                   1                   7    -0.0002033292708     0.0001422197208     6.110954996e-05    -0.0002564061345    -2.968838304e-05    -8.111017086e-05
                   1                   8    -0.0002231215261     0.0001224274655     0.0001006940607     0.0004346918487    -2.968838304e-05    -2.173340478e-05
                   2                   1     0.0001159786414    -0.0001022853794    -1.369326205e-05      0.000307406878     1.946785407e-05     8.859211734e-05
                   2                   2     0.0001289572108    -8.930681001e-05    -3.965040082e-05    -0.0001291211637     1.946785407e-05     4.965640919e-05
                   2                   3    -0.0001289572108     8.930681001e-05     3.965040082e-05    -0.0001291211637    -1.946785407e-05     4.965640919e-05
                   2                   4    -0.0001159786414     0.0001022853794     1.369326205e-05      0.000307406878    -1.946785407e-05     8.859211734e-05
                   2                   5     0.0001159786414    -0.0001022853794    -1.369326205e-05      0.000307406878    -1.946785407e-05    -8.859211734e-05
                   2                   6     0.0001289572108    -8.930681001e-05    -3.965040082e-05    -0.0001291211637    -1.946785407e-05    -4.965640919e-05
                   2                   7    -0.0001289572108     8.930681001e-05     3.965040082e-05    -0.0001291211637     1.946785407e-05    -4.965640919e-05
                   2                   8    -0.0001159786414     0.0001022853794     1.369326205e-05      0.000307406878     1.946785407e-05    -8.859211734e-05
                   3                   1     3.857247638e-05    -3.492652403e-05    -3.645952355e-06     0.0001626418576     5.634006789e-06     3.128057167e-05
                   3                   2     4.232848091e-05     -3.11705195e-05    -1.115796141e-05     1.564385673e-05     5.634006789e-06     2.001255809e-05
                   3                   3    -4.232848091e-05      3.11705195e-05     1.115796141e-05     1.564385673e-05    -5.634006789e-06     2.001255809e-05
                   3                   4    -3.857247638e-05     3.492652403e-05     3.645952355e-06     0.0001626418576    -5.634006789e-06     3.128057167e-05
                   3                   5     3.857247638e-05    -3.492652403e-05    -3.645952355e-06     0.0001626418576    -5.634006789e-06    -3.128057167e-05
                   3                   6     4.232848091e-05     -3.11705195e-05    -1.115796141e-05     1.564385673e-05    -5.634006789e-06    -2.001255809e-05
                   3                   7    -4.232848091e-05      3.11705195e-05     1.115796141e-05     1.564385673e-05     5.634006789e-06    -2.001255809e-05
                   3                   8    -3.857247638e-05     3.492652403e-05     3.645952355e-06     0.0001626418576     5.634006789e-06    -3.128057167e-05

***** Plastic Strain Data ******
          Element No         Integral No          PStrain XX          PStrain YY          PStrain ZZ          PStrain XY          PStrain XZ          PStrain YZ
                   1                   1                   0                   0                   0                   0                   0                   0
                   1                   2                   0                   0                   0                   0                   0                   0
                   1                   3                   0                   0                   0                   0                   0                   0
                   1                   4                   0                   0                   0                   0                   0                   0
                   1                   5                   0                   0                   0                   0                   0                   0
                   1                   6                   0                   0                   0                   0                   0                   0
                   1                   7                   0                   0                   0                   0                   0                   0
                   1                   8                   0                   0                   0                   0                   0                   0
                   2                   1                   0                   0                   0                   0                   0                   0
                   2                   2                   0                   0                   0                   0                   0                   0
                   2                   3                   0                   0                   0                   0                   0                   0
                   2                   4                   0                   0                   0                   0                   0                   0
                   2                   5                   0                   0                   0                   0                   0                   0
                   2                   6                   0                   0                   0                   0                   0                   0
                   2                   7                   0                   0                   0                   0                   0                   0
                   2                   8                   0                   0                   0                   0                   0                   0
                   3                   1                   0                   0                   0                   0                   0                   0
                   3                   2                   0                   0                   0                   0                   0                   0
                   3                   3                   0                   0                   0                   0                   0                   0
                   3                   4                   0                   0                   0                   0                   0                   0
                   3                   5                   0                   0                   0                   0                   0                   0
                   3                   6                   0                   0                   0                   0                   0                   0
                   3                   7                   0                   0                   0                   0                   0                   0
                   3                   8                   0                   0                   0                   0                   0                   0

***** Reaction Force Data ******
              NodeNo           Magnitude             X Force             Y Force             Z Force----------------------------------------------------------------------------------------------------
                   1         11.12177589               -10.8                -1.8         1.952920591
                   2     8.334810344e-15     6.217248938e-15    -4.440892099e-15    -3.330669074e-15
                   3     9.371597666e-14     3.685940442e-14     8.282263764e-14     2.375877273e-14
                   4      3.20945201e-14     4.690692279e-15    -2.664535259e-15     3.163788675e-14
                   5         11.12177589               -10.8                -1.8        -1.952920591
                   6     2.786283795e-14     1.421085472e-14     2.198241589e-14     9.547918012e-15
                   7     2.625131674e-14     1.199040867e-14    -2.198241589e-14     7.882583475e-15
                   8     2.021246793e-14    -4.662936703e-15     1.310063169e-14    -1.466882171e-14
                   9         11.12177589                10.8                -1.8        -1.952920591
                  10     1.105773215e-14     7.993605777e-15     4.440892099e-15    -6.217248938e-15
                  11     1.570102272e-14    -1.110223025e-14     4.218847494e-15    -1.026956298e-14
                  12     4.630407453e-14    -2.554900735e-14    -3.508304758e-14     1.613986722e-14
                  13         11.12177589                10.8                -1.8         1.952920591
                  14     1.625785063e-14    -1.154631946e-14    -3.552713679e-15    -1.088018564e-14
                  15     7.831285706e-14     1.154631946e-14    -6.528111385e-14    -4.168887457e-14
                  16     1.973129785e-14     6.217248938e-15    -1.776356839e-14    -5.926682756e-15

*Increment 19

***** Displacement Data ******
              NodeNo           Magnitude      X Displacement      Y Displacement      Z Displacement
----------------------------------------------------------------------------------------------------
                   1                   0                   0                   0                   0
                   2     0.0009668619135     0.0006317588772     0.0007258541153    -9.401321296e-05
                   3      0.002688211936      0.001030805716      0.002482513946    -3.236500839e-05
                   4      0.004912793824      0.001165182164      0.004772597064    -1.452398689e-05
                   5                   0                   0                   0                   0
                   6     0.0009668619135     0.0006317588772     0.0007258541153     9.401321296e-05
                   7      0.002688211936      0.001030805716      0.002482513946     3.236500839e-05
                   8      0.004912793824      0.001165182164      0.004772597064     1.452398689e-05
                   9                   0                   0                   0                   0
                  10     0.0009668619135    -0.0006317588772     0.0007258541153     9.401321296e-05
                  11      0.002688211936     -0.001030805716      0.002482513946     3.236500839e-05
                  12      0.004912793824     -0.001165182164      0.004772597064     1.452398689e-05
                  13                   0                   0                   0                   0
                  14     0.0009668619135    -0.0006317588772     0.0007258541153    -9.401321296e-05
                  15      0.002688211936     -0.001030805716      0.002482513946    -3.236500839e-05
                  16      0.004912793824     -0.001165182164      0.004772597064    -1.452398689e-05

***** Stress Data ******
          Element No         Integral No           Stress XX           Stress YY           Stress ZZ           Stress XY           Stress XZ           Stress YZ               Mises            YieldFlg
                   1                   1         38.04508074        -20.87545244         -17.1696283         37.06026659        -2.531124964         1.852912074         86.12155908               False
                   1                   2         34.67024745        -24.25028573        -10.41996172        -21.86026659        -2.531124964         6.915162003         66.66565061               False
                   1                   3        -34.67024745         24.25028573         10.41996172        -21.86026659         2.531124964         6.915162003         66.66565061               False
                   1                   4        -38.04508074         20.87545244          17.1696283         37.06026659         2.531124964         1.852912074         86.12155908               False
                   1                   5         38.04508074        -20.87545244         -17.1696283         37.06026659         2.531124964        -1.852912074         86.12155908               False
                   1                   6         34.67024745        -24.25028573        -10.41996172        -21.86026659         2.531124964        -6.915162003         66.66565061               False
                   1                   7        -34.67024745         24.25028573         10.41996172        -21.86026659        -2.531124964        -6.915162003         66.66565061               False
                   1                   8        -38.04508074         20.87545244          17.1696283         37.06026659        -2.531124964        -1.852912074         86.12155908               False
                   2                   1         19.77584527        -17.44096854        -2.334876735          26.2084069         1.659759354         7.553045901         57.36842617               False
                   2                   2         21.98885774        -15.22795607        -6.760901678         -11.0084069         1.659759354         4.233527194         39.58854862               False
                   2                   3        -21.98885774         15.22795607         6.760901678         -11.0084069        -1.659759354         4.233527194         39.58854862               False
                   2                   4        -19.77584527         17.44096854         2.334876735          26.2084069        -1.659759354         7.553045901         57.36842617               False
                   2                   5         19.77584527        -17.44096854        -2.334876735          26.2084069        -1.659759354        -7.553045901         57.36842617               False
                   2                   6         21.98885774        -15.22795607        -6.760901678         -11.0084069        -1.659759354        -4.233527194         39.58854862               False
                   2                   7        -21.98885774         15.22795607         6.760901678         -11.0084069         1.659759354        -4.233527194         39.58854862               False
                   2                   8        -19.77584527         17.44096854         2.334876735          26.2084069         1.659759354        -7.553045901         57.36842617               False
                   3                   1         6.577101742        -5.955420123       -0.6216816195         13.86626093        0.4803351942         2.666869252         26.78648901               False
                   3                   2         7.217548668        -5.314973197        -1.902575471         1.333739068        0.4803351942         1.706198863          11.8619013               False
                   3                   3        -7.217548668         5.314973197         1.902575471         1.333739068       -0.4803351942         1.706198863          11.8619013               False
                   3                   4        -6.577101742         5.955420123        0.6216816195         13.86626093       -0.4803351942         2.666869252         26.78648901               False
                   3                   5         6.577101742        -5.955420123       -0.6216816195         13.86626093       -0.4803351942        -2.666869252         26.78648901               False
                   3                   6         7.217548668        -5.314973197        -1.902575471         1.333739068       -0.4803351942        -1.706198863          11.8619013               False
                   3                   7        -7.217548668         5.314973197         1.902575471         1.333739068        0.4803351942        -1.706198863          11.8619013               False
                   3                   8        -6.577101742         5.955420123        0.6216816195         13.86626093        0.4803351942        -2.666869252         26.78648901               False

***** Strain Data ******
          Element No         Integral No           Strain XX           Strain YY           Strain ZZ           Strain XY           Strain XZ           Strain YZ
                   1                   1     0.0002355171665    -0.0001292289913    -0.0001062881752     0.0004588413959    -3.133773765e-05     2.294081616e-05
                   1                   2     0.0002146253414    -0.0001501208164    -6.450452496e-05    -0.0002706509197    -3.133773765e-05     8.561629146e-05
                   1                   3    -0.0002146253414     0.0001501208164     6.450452496e-05    -0.0002706509197     3.133773765e-05     8.561629146e-05
                   1                   4    -0.0002355171665     0.0001292289913     0.0001062881752     0.0004588413959     3.133773765e-05     2.294081616e-05
                   1                   5     0.0002355171665    -0.0001292289913    -0.0001062881752     0.0004588413959     3.133773765e-05    -2.294081616e-05
                   1                   6     0.0002146253414    -0.0001501208164    -6.450452496e-05    -0.0002706509197     3.133773765e-05    -8.561629146e-05
                   1                   7    -0.0002146253414     0.0001501208164     6.450452496e-05    -0.0002706509197    -3.133773765e-05    -8.561629146e-05
                   1                   8    -0.0002355171665     0.0001292289913     0.0001062881752     0.0004588413959    -3.133773765e-05    -2.294081616e-05
                   2                   1     0.0001224218993    -0.0001079679005    -1.445399883e-05     0.0003244850379     2.054940152e-05     9.351390164e-05
                   2                   2     0.0001361215003    -9.426829945e-05    -4.185320086e-05    -0.0001362945617     2.054940152e-05     5.241509859e-05
                   2                   3    -0.0001361215003     9.426829945e-05     4.185320086e-05    -0.0001362945617    -2.054940152e-05     5.241509859e-05
                   2                   4    -0.0001224218993     0.0001079679005     1.445399883e-05     0.0003244850379    -2.054940152e-05     9.351390164e-05
                   2                   5     0.0001224218993    -0.0001079679005    -1.445399883e-05     0.0003244850379    -2.054940152e-05    -9.351390164e-05
                   2                   6     0.0001361215003    -9.426829945e-05    -4.185320086e-05    -0.0001362945617    -2.054940152e-05    -5.241509859e-05
                   2                   7    -0.0001361215003     9.426829945e-05     4.185320086e-05    -0.0001362945617     2.054940152e-05    -5.241509859e-05
                   2                   8    -0.0001224218993     0.0001079679005     1.445399883e-05     0.0003244850379     2.054940152e-05    -9.351390164e-05
                   3                   1     4.071539174e-05    -3.686688647e-05    -3.848505264e-06     0.0001716775163     5.947007166e-06     3.301838121e-05
                   3                   2     4.468006318e-05    -3.290221503e-05    -1.177784815e-05     1.651295988e-05     5.947007166e-06     2.112436688e-05
                   3                   3    -4.468006318e-05     3.290221503e-05     1.177784815e-05     1.651295988e-05    -5.947007166e-06     2.112436688e-05
                   3                   4    -4.071539174e-05     3.686688647e-05     3.848505264e-06     0.0001716775163    -5.947007166e-06     3.301838121e-05
                   3                   5     4.071539174e-05    -3.686688647e-05    -3.848505264e-06     0.0001716775163    -5.947007166e-06    -3.301838121e-05
                   3                   6     4.468006318e-05    -3.290221503e-05    -1.177784815e-05     1.651295988e-05    -5.947007166e-06    -2.112436688e-05
                   3                   7    -4.468006318e-05     3.290221503e-05     1.177784815e-05     1.651295988e-05     5.947007166e-06    -2.112436688e-05
                   3                   8    -4.071539174e-05     3.686688647e-05     3.848505264e-06     0.0001716775163     5.947007166e-06    -3.301838121e-05

***** Plastic Strain Data ******
          Element No         Integral No          PStrain XX          PStrain YY          PStrain ZZ          PStrain XY          PStrain XZ          PStrain YZ
                   1                   1                   0                   0                   0                   0                   0                   0
                   1                   2                   0                   0                   0                   0                   0                   0
                   1                   3                   0                   0                   0                   0                   0                   0
                   1                   4                   0                   0                   0                   0                   0                   0
                   1                   5                   0                   0                   0                   0                   0                   0
                   1                   6                   0                   0                   0                   0                   0                   0
                   1                   7                   0                   0                   0                   0                   0                   0
                   1                   8                   0                   0                   0                   0                   0                   0
                   2                   1                   0                   0                   0                   0                   0                   0
                   2                   2                   0                   0                   0                   0                   0                   0
                   2                   3                   0                   0                   0                   0                   0                   0
                   2                   4                   0                   0                   0                   0                   0                   0
                   2                   5                   0                   0                   0                   0                   0                   0
                   2                   6                   0                   0                   0                   0                   0                   0
                   2                   7                   0                   0                   0                   0                   0                   0
                   2                   8                   0                   0                   0                   0                   0                   0
                   3                   1                   0                   0                   0                   0                   0                   0
                   3                   2                   0                   0                   0                   0                   0                   0
                   3                   3                   0                   0                   0                   0                   0                   0
                   3                   4                   0                   0                   0                   0                   0                   0
                   3                   5                   0                   0                   0                   0                   0                   0
                   3                   6                   0                   0                   0                   0                   0                   0
                   3                   7                   0                   0                   0                   0                   0                   0
                   3                   8                   0                   0                   0                   0                   0                   0

***** Reaction Force Data ******
              NodeNo           Magnitude             X Force             Y Force             Z Force----------------------------------------------------------------------------------------------------
                   1         11.73965232               -11.4                -1.9          2.06141618
                   2      1.12549458e-14     9.769962617e-15     1.998401444e-15    -5.218048216e-15
                   3     6.334355065e-14     3.463895837e-14     5.173639295e-14     1.165734176e-14
                   4     4.562335564e-14     2.350897255e-14    -2.997602166e-14     2.510491814e-14
                   5         11.73965232               -11.4                -1.9         -2.06141618
                   6     2.594907344e-14     8.881784197e-15     2.198241589e-14     1.054711873e-14
                   7     4.037279127e-14     3.552713679e-15    -3.907985047e-14     9.492406861e-15
                   8     1.761832031e-14     1.587618925e-14     -1.33226763e-15    -7.521760992e-15
                   9         11.73965232                11.4                -1.9         -2.06141618
                  10     1.088075207e-14    -3.552713679e-15     7.327471963e-15     -7.21644966e-15
                  11     4.072964043e-14    -1.953992523e-14     2.664535259e-14    -2.381428388e-14
                  12     3.374870724e-14    -2.696454171e-14    -1.909583602e-14     6.872974412e-15
                  13         11.73965232                11.4                -1.9          2.06141618
                  14     1.702844715e-14    -1.421085472e-14     3.330669074e-15    -8.770761895e-15
                  15     4.671862812e-14    -9.325873407e-15    -4.085620731e-14    -2.065014826e-14
                  16     2.168822416e-14      2.01505479e-14    -6.661338148e-15     4.467780312e-15

*Increment 20

***** Displacement Data ******
              NodeNo           Magnitude      X Displacement      Y Displacement      Z Displacement
----------------------------------------------------------------------------------------------------
                   1                   0                   0                   0                   0
                   2      0.001017749383     0.0006650093444     0.0007640569634     -9.89612768e-05
                   3      0.002829696775      0.001085058648      0.002613172575    -3.406842988e-05
                   4       0.00517136192      0.001226507541      0.005023786383    -1.528840725e-05
                   5                   0                   0                   0                   0
                   6      0.001017749383     0.0006650093444     0.0007640569634      9.89612768e-05
                   7      0.002829696775      0.001085058648      0.002613172575     3.406842988e-05
                   8       0.00517136192      0.001226507541      0.005023786383     1.528840725e-05
                   9                   0                   0                   0                   0
                  10      0.001017749383    -0.0006650093444     0.0007640569634      9.89612768e-05
                  11      0.002829696775     -0.001085058648      0.002613172575     3.406842988e-05
                  12       0.00517136192     -0.001226507541      0.005023786383     1.528840725e-05
                  13                   0                   0                   0                   0
                  14      0.001017749383    -0.0006650093444     0.0007640569634     -9.89612768e-05
                  15      0.002829696775     -0.001085058648      0.002613172575    -3.406842988e-05
                  16       0.00517136192     -0.001226507541      0.005023786383    -1.528840725e-05

***** Stress Data ******
          Element No         Integral No           Stress XX           Stress YY           Stress ZZ           Stress XY           Stress XZ           Stress YZ               Mises            YieldFlg
                   1                   1         40.04745341        -21.97416047        -18.07329294         39.01080694        -2.664342068         1.950433762         90.65427271               False
                   1                   2         36.49499732        -25.52661656        -10.96838076        -23.01080694        -2.664342068         7.279117897         70.17436907               False
                   1                   3        -36.49499732         25.52661656         10.96838076        -23.01080694         2.664342068         7.279117897         70.17436907               False
                   1                   4        -40.04745341         21.97416047         18.07329294         39.01080694         2.664342068         1.950433762         90.65427271               False
                   1                   5         40.04745341        -21.97416047        -18.07329294         39.01080694         2.664342068        -1.950433762         90.65427271               False
                   1                   6         36.49499732        -25.52661656        -10.96838076        -23.01080694         2.664342068        -7.279117897         70.17436907               False
                   1                   7        -36.49499732         25.52661656         10.96838076        -23.01080694        -2.664342068        -7.279117897         70.17436907               False
                   1                   8        -40.04745341         21.97416047         18.07329294         39.01080694        -2.664342068        -1.950433762         90.65427271               False
                   2                   1         20.81667923        -18.35891425        -2.457764984         27.58779674         1.747115109         7.950574633         60.38781702               False
                   2                   2         23.14616605        -16.02942744        -7.116738609        -11.58779674         1.747115109         4.456344414         41.67215644               False
                   2                   3        -23.14616605         16.02942744         7.116738609        -11.58779674        -1.747115109         4.456344414         41.67215644               False
                   2                   4        -20.81667923         18.35891425         2.457764984         27.58779674        -1.747115109         7.950574633         60.38781702               False
                   2                   5         20.81667923        -18.35891425        -2.457764984         27.58779674        -1.747115109        -7.950574633         60.38781702               False
                   2                   6         23.14616605        -16.02942744        -7.116738609        -11.58779674        -1.747115109        -4.456344414         41.67215644               False
                   2                   7        -23.14616605         16.02942744         7.116738609        -11.58779674         1.747115109        -4.456344414         41.67215644               False
                   2                   8        -20.81667923         18.35891425         2.457764984         27.58779674         1.747115109        -7.950574633         60.38781702               False
                   3                   1         6.923264992        -6.268863287       -0.6544017047         14.59606414        0.5056159939         2.807230791         28.19630422               False
                   3                   2          7.59741965        -5.594708629        -2.002711022         1.403935861        0.5056159939         1.795998803          12.4862119               False
                   3                   3         -7.59741965         5.594708629         2.002711022         1.403935861       -0.5056159939         1.795998803          12.4862119               False
                   3                   4        -6.923264992         6.268863287        0.6544017047         14.59606414       -0.5056159939         2.807230791         28.19630422               False
                   3                   5         6.923264992        -6.268863287       -0.6544017047         14.59606414       -0.5056159939        -2.807230791         28.19630422               False
                   3                   6          7.59741965        -5.594708629        -2.002711022         1.403935861       -0.5056159939        -1.795998803          12.4862119               False
                   3                   7         -7.59741965         5.594708629         2.002711022         1.403935861        0.5056159939        -1.795998803          12.4862119               False
                   3                   8        -6.923264992         6.268863287        0.6544017047         14.59606414        0.5056159939        -2.807230791         28.19630422               False

***** Strain Data ******
          Element No         Integral No           Strain XX           Strain YY           Strain ZZ           Strain XY           Strain XZ           Strain YZ
                   1                   1     0.0002479128068    -0.0001360305172    -0.0001118822896      0.000482990943    -3.298709227e-05     2.414822753e-05
                   1                   2      0.000225921412     -0.000158021912    -6.789949996e-05    -0.0002848957049    -3.298709227e-05     9.012241206e-05
                   1                   3     -0.000225921412      0.000158021912     6.789949996e-05    -0.0002848957049     3.298709227e-05     9.012241206e-05
                   1                   4    -0.0002479128068     0.0001360305172     0.0001118822896      0.000482990943     3.298709227e-05     2.414822753e-05
                   1                   5     0.0002479128068    -0.0001360305172    -0.0001118822896      0.000482990943     3.298709227e-05    -2.414822753e-05
                   1                   6      0.000225921412     -0.000158021912    -6.789949996e-05    -0.0002848957049     3.298709227e-05    -9.012241206e-05
                   1                   7     -0.000225921412      0.000158021912     6.789949996e-05    -0.0002848957049    -3.298709227e-05    -9.012241206e-05
                   1                   8    -0.0002479128068     0.0001360305172     0.0001118822896      0.000482990943    -3.298709227e-05    -2.414822753e-05
                   2                   1     0.0001288651572    -0.0001136504215    -1.521473561e-05     0.0003415631978     2.163094897e-05     9.843568593e-05
                   2                   2     0.0001432857898     -9.92297889e-05    -4.405600091e-05    -0.0001434679597     2.163094897e-05     5.517378799e-05
                   2                   3    -0.0001432857898      9.92297889e-05     4.405600091e-05    -0.0001434679597    -2.163094897e-05     5.517378799e-05
                   2                   4    -0.0001288651572     0.0001136504215     1.521473561e-05     0.0003415631978    -2.163094897e-05     9.843568593e-05
                   2                   5     0.0001288651572    -0.0001136504215    -1.521473561e-05     0.0003415631978    -2.163094897e-05    -9.843568593e-05
                   2                   6     0.0001432857898     -9.92297889e-05    -4.405600091e-05    -0.0001434679597    -2.163094897e-05    -5.517378799e-05
                   2                   7    -0.0001432857898      9.92297889e-05     4.405600091e-05    -0.0001434679597     2.163094897e-05    -5.517378799e-05
                   2                   8    -0.0001288651572     0.0001136504215     1.521473561e-05     0.0003415631978     2.163094897e-05    -9.843568593e-05
                   3                   1     4.285830709e-05    -3.880724892e-05    -4.051058172e-06     0.0001807131751     6.260007544e-06     3.475619075e-05
                   3                   2     4.703164545e-05    -3.463391056e-05     -1.23977349e-05     1.738206304e-05     6.260007544e-06     2.223617566e-05
                   3                   3    -4.703164545e-05     3.463391056e-05      1.23977349e-05     1.738206304e-05    -6.260007544e-06     2.223617566e-05
                   3                   4    -4.285830709e-05     3.880724892e-05     4.051058172e-06     0.0001807131751    -6.260007544e-06     3.475619075e-05
                   3                   5     4.285830709e-05    -3.880724892e-05    -4.051058172e-06     0.0001807131751    -6.260007544e-06    -3.475619075e-05
                   3                   6     4.703164545e-05    -3.463391056e-05     -1.23977349e-05     1.738206304e-05    -6.260007544e-06    -2.223617566e-05
                   3                   7    -4.703164545e-05     3.463391056e-05      1.23977349e-05     1.738206304e-05     6.260007544e-06    -2.223617566e-05
                   3                   8    -4.285830709e-05     3.880724892e-05     4.051058172e-06     0.0001807131751     6.260007544e-06    -3.475619075e-05

***** Plastic Strain Data ******
          Element No         Integral No          PStrain XX          PStrain YY          PStrain ZZ          PStrain XY          PStrain XZ          PStrain YZ
                   1                   1                   0                   0                   0                   0                   0                   0
                   1                   2                   0                   0                   0                   0                   0                   0
                   1                   3                   0                   0                   0                   0                   0                   0
                   1                   4                   0                   0                   0                   0                   0                   0
                   1                   5                   0                   0                   0                   0                   0                   0
                   1                   6                   0                   0                   0                   0                   0                   0
                   1                   7                   0                   0                   0                   0                   0                   0
                   1                   8                   0                   0                   0                   0                   0                   0
                   2                   1                   0                   0                   0                   0                   0                   0
                   2                   2                   0                   0                   0                   0                   0                   0
                   2                   3                   0                   0                   0                   0                   0                   0
                   2                   4                   0                   0                   0                   0                   0                   0
                   2                   5                   0                   0                   0                   0                   0                   0
                   2                   6                   0                   0                   0                   0                   0                   0
                   2                   7                   0                   0                   0                   0                   0                   0
                   2                   8                   0                   0                   0                   0                   0                   0
                   3                   1                   0                   0                   0                   0                   0                   0
                   3                   2                   0                   0                   0                   0                   0                   0
                   3                   3                   0                   0                   0                   0                   0                   0
                   3                   4                   0                   0                   0                   0                   0                   0
                   3                   5                   0                   0                   0                   0                   0                   0
                   3                   6                   0                   0                   0                   0                   0                   0
                   3                   7                   0                   0                   0                   0                   0                   0
                   3                   8                   0                   0                   0                   0                   0                   0

***** Reaction Force Data ******
              NodeNo           Magnitude             X Force             Y Force             Z Force----------------------------------------------------------------------------------------------------
                   1         12.35752876                 -12                  -2         2.169911768
                   2     1.000987817e-14     5.329070518e-15    -4.440892099e-15     -7.21644966e-15
                   3      6.56772697e-14     3.552713679e-14      5.41788836e-14     1.076916334e-14
                   4     2.892586646e-14     4.926614672e-15     4.440892099e-16     2.849977199e-14
                   5         12.35752876                 -12                  -2        -2.169911768
                   6     3.116089685e-14     1.509903313e-14     2.442490654e-14     1.210143097e-14
                   7     4.064451285e-14     1.953992523e-14    -3.508304758e-14     6.272760089e-15
                   8     1.415279227e-14     2.775557562e-15     1.021405183e-14    -9.395262346e-15
                   9         12.35752876                  12                  -2        -2.169911768
                  10     1.433693027e-14     1.776356839e-15     1.176836406e-14    -7.993605777e-15
                  11     1.110667025e-14    -2.220446049e-15    -2.220446049e-16    -1.088018564e-14
                  12     3.574285492e-14     -2.18575158e-14    -2.531308496e-14     1.261143967e-14
                  13         12.35752876                  12                  -2         2.169911768
                  14     2.064537255e-14    -1.598721155e-14     1.110223025e-14    -6.883382753e-15
                  15     5.569207256e-14    -4.884981308e-15     -4.52970994e-14    -3.202993426e-14
                  16     2.636489034e-14     1.348920975e-14     -2.26485497e-14    -4.380176777e-16

*Increment 21

***** Displacement Data ******
              NodeNo           Magnitude      X Displacement      Y Displacement      Z Displacement
----------------------------------------------------------------------------------------------------
                   1                   0                   0                   0                   0
                   2      0.001068636852     0.0006982598116     0.0008022598116    -0.0001039093406
                   3      0.002971181613      0.001139311581      0.002743831204    -3.577185138e-05
                   4      0.005429930016      0.001287832918      0.005274975702    -1.605282761e-05
                   5                   0                   0                   0                   0
                   6      0.001068636852     0.0006982598116     0.0008022598116     0.0001039093406
                   7      0.002971181613      0.001139311581      0.002743831204     3.577185138e-05
                   8      0.005429930016      0.001287832918      0.005274975702     1.605282761e-05
                   9                   0                   0                   0                   0
                  10      0.001068636852    -0.0006982598116     0.0008022598116     0.0001039093406
                  11      0.002971181613     -0.001139311581      0.002743831204     3.577185138e-05
                  12      0.005429930016     -0.001287832918      0.005274975702     1.605282761e-05
                  13                   0                   0                   0                   0
                  14      0.001068636852    -0.0006982598116     0.0008022598116    -0.0001039093406
                  15      0.002971181613     -0.001139311581      0.002743831204    -3.577185138e-05
                  16      0.005429930016     -0.001287832918      0.005274975702    -1.605282761e-05

***** Stress Data ******
          Element No         Integral No           Stress XX           Stress YY           Stress ZZ           Stress XY           Stress XZ           Stress YZ               Mises            YieldFlg
                   1                   1         42.04982608        -23.07286849        -18.97695759         40.96134729        -2.797559171          2.04795545         95.18698635               False
                   1                   2         38.31974719        -26.80294738         -11.5167998        -24.16134729        -2.797559171         7.643073792         73.68308752               False
                   1                   3        -38.31974719         26.80294738          11.5167998        -24.16134729         2.797559171         7.643073792         73.68308752               False
                   1                   4        -42.04982608         23.07286849         18.97695759         40.96134729         2.797559171          2.04795545         95.18698635               False
                   1                   5         42.04982608        -23.07286849        -18.97695759         40.96134729         2.797559171         -2.04795545         95.18698635               False
                   1                   6         38.31974719        -26.80294738         -11.5167998        -24.16134729         2.797559171        -7.643073792         73.68308752               False
                   1                   7        -38.31974719         26.80294738          11.5167998        -24.16134729        -2.797559171        -7.643073792         73.68308752               False
                   1                   8        -42.04982608         23.07286849         18.97695759         40.96134729        -2.797559171         -2.04795545         95.18698635               False
                   2                   1          21.8575132        -19.27685996        -2.580653233         28.96718658         1.834470865         8.348103365         63.40720788               False
                   2                   2         24.30347435        -16.83089881        -7.472575539        -12.16718658         1.834470865         4.679161635         43.75576427               False
                   2                   3        -24.30347435         16.83089881         7.472575539        -12.16718658        -1.834470865         4.679161635         43.75576427               False
                   2                   4         -21.8575132         19.27685996         2.580653233         28.96718658        -1.834470865         8.348103365         63.40720788               False
                   2                   5          21.8575132        -19.27685996        -2.580653233         28.96718658        -1.834470865        -8.348103365         63.40720788               False
                   2                   6         24.30347435        -16.83089881        -7.472575539        -12.16718658        -1.834470865        -4.679161635         43.75576427               False
                   2                   7        -24.30347435         16.83089881         7.472575539        -12.16718658         1.834470865        -4.679161635         43.75576427               False
                   2                   8         -21.8575132         19.27685996         2.580653233         28.96718658         1.834470865        -8.348103365         63.40720788               False
                   3                   1         7.269428241        -6.582306451         -0.68712179         15.32586735        0.5308967936         2.947592331         29.60611943               False
                   3                   2         7.977290633         -5.87444406        -2.102846573         1.474132654        0.5308967936         1.885798744         13.11052249               False
                   3                   3        -7.977290633          5.87444406         2.102846573         1.474132654       -0.5308967936         1.885798744         13.11052249               False
                   3                   4        -7.269428241         6.582306451          0.68712179         15.32586735       -0.5308967936         2.947592331         29.60611943               False
                   3                   5         7.269428241        -6.582306451         -0.68712179         15.32586735       -0.5308967936        -2.947592331         29.60611943               False
                   3                   6         7.977290633         -5.87444406        -2.102846573         1.474132654       -0.5308967936        -1.885798744         13.11052249               False
                   3                   7        -7.977290633          5.87444406         2.102846573         1.474132654        0.5308967936        -1.885798744         13.11052249               False
                   3                   8        -7.269428241         6.582306451          0.68712179         15.32586735        0.5308967936        -2.947592331         29.60611943               False

***** Strain Data ******
          Element No         Integral No           Strain XX           Strain YY           Strain ZZ           Strain XY           Strain XZ           Strain YZ
                   1                   1     0.0002603084472     -0.000142832043    -0.0001174764041     0.0005071404902    -3.463644688e-05     2.535563891e-05
                   1                   2     0.0002372174826    -0.0001659230076    -7.129447496e-05    -0.0002991404902    -3.463644688e-05     9.462853267e-05
                   1                   3    -0.0002372174826     0.0001659230076     7.129447496e-05    -0.0002991404902     3.463644688e-05     9.462853267e-05
                   1                   4    -0.0002603084472      0.000142832043     0.0001174764041     0.0005071404902     3.463644688e-05     2.535563891e-05
                   1                   5     0.0002603084472     -0.000142832043    -0.0001174764041     0.0005071404902     3.463644688e-05    -2.535563891e-05
                   1                   6     0.0002372174826    -0.0001659230076    -7.129447496e-05    -0.0002991404902     3.463644688e-05    -9.462853267e-05
                   1                   7    -0.0002372174826     0.0001659230076     7.129447496e-05    -0.0002991404902    -3.463644688e-05    -9.462853267e-05
                   1                   8    -0.0002603084472      0.000142832043     0.0001174764041     0.0005071404902    -3.463644688e-05    -2.535563891e-05
                   2                   1      0.000135308415    -0.0001193329426     -1.59754724e-05     0.0003586413576     2.271249642e-05     0.0001033574702
                   2                   2     0.0001504500793    -0.0001041912783    -4.625880096e-05    -0.0001506413576     2.271249642e-05     5.793247739e-05
                   2                   3    -0.0001504500793     0.0001041912783     4.625880096e-05    -0.0001506413576    -2.271249642e-05     5.793247739e-05
                   2                   4     -0.000135308415     0.0001193329426      1.59754724e-05     0.0003586413576    -2.271249642e-05     0.0001033574702
                   2                   5      0.000135308415    -0.0001193329426     -1.59754724e-05     0.0003586413576    -2.271249642e-05    -0.0001033574702
                   2                   6     0.0001504500793    -0.0001041912783    -4.625880096e-05    -0.0001506413576    -2.271249642e-05    -5.793247739e-05
                   2                   7    -0.0001504500793     0.0001041912783     4.625880096e-05    -0.0001506413576     2.271249642e-05    -5.793247739e-05
                   2                   8     -0.000135308415     0.0001193329426      1.59754724e-05     0.0003586413576     2.271249642e-05    -0.0001033574702
                   3                   1     4.500122245e-05    -4.074761137e-05    -4.253611081e-06     0.0001897488338     6.573007921e-06     3.649400029e-05
                   3                   2     4.938322773e-05    -3.636560609e-05    -1.301762164e-05     1.825116619e-05     6.573007921e-06     2.334798444e-05
                   3                   3    -4.938322773e-05     3.636560609e-05     1.301762164e-05     1.825116619e-05    -6.573007921e-06     2.334798444e-05
                   3                   4    -4.500122245e-05     4.074761137e-05     4.253611081e-06     0.0001897488338    -6.573007921e-06     3.649400029e-05
                   3                   5     4.500122245e-05    -4.074761137e-05    -4.253611081e-06     0.0001897488338    -6.573007921e-06    -3.649400029e-05
                   3                   6     4.938322773e-05    -3.636560609e-05    -1.301762164e-05     1.825116619e-05    -6.573007921e-06    -2.334798444e-05
                   3                   7    -4.938322773e-05     3.636560609e-05     1.301762164e-05     1.825116619e-05     6.573007921e-06    -2.334798444e-05
                   3                   8    -4.500122245e-05     4.074761137e-05     4.253611081e-06     0.0001897488338     6.573007921e-06    -3.649400029e-05

***** Plastic Strain Data ******
          Element No         Integral No          PStrain XX          PStrain YY          PStrain ZZ          PStrain XY          PStrain XZ          PStrain YZ
                   1                   1                   0                   0                   0                   0                   0                   0
                   1                   2                   0                   0                   0                   0                   0                   0
                   1                   3                   0                   0                   0                   0                   0                   0
                   1                   4                   0                   0                   0                   0                   0                   0
                   1                   5                   0                   0                   0                   0                   0                   0
                   1                   6                   0                   0                   0                   0                   0                   0
                   1                   7                   0                   0                   0                   0                   0                   0
                   1                   8                   0                   0                   0                   0                   0                   0
                   2                   1                   0                   0                   0                   0                   0                   0
                   2                   2                   0                   0                   0                   0                   0                   0
                   2                   3                   0                   0                   0                   0                   0                   0
                   2                   4                   0                   0                   0                   0                   0                   0
                   2                   5                   0                   0                   0                   0                   0                   0
                   2                   6                   0                   0                   0                   0                   0                   0
                   2                   7                   0                   0                   0                   0                   0                   0
                   2                   8                   0                   0                   0                   0                   0                   0
                   3                   1                   0                   0                   0                   0                   0                   0
                   3                   2                   0                   0                   0                   0                   0                   0
                   3                   3                   0                   0                   0                   0                   0                   0
                   3                   4                   0                   0                   0                   0                   0                   0
                   3                   5                   0                   0                   0                   0                   0                   0
                   3                   6                   0                   0                   0                   0                   0                   0
                   3                   7                   0                   0                   0                   0                   0                   0
                   3                   8                   0                   0                   0                   0                   0                   0

***** Reaction Force Data ******
              NodeNo           Magnitude             X Force             Y Force             Z Force----------------------------------------------------------------------------------------------------
                   1          12.9754052               -12.6                -2.1         2.278407357
                   2     1.343002794e-14     8.881784197e-15    -5.329070518e-15     -8.54871729e-15
                   3     6.800496663e-14     4.174438573e-14     5.329070518e-14     6.494804694e-15
                   4     2.967771701e-14     1.784683512e-14    -1.154631946e-14     2.071086358e-14
                   5          12.9754052               -12.6                -2.1        -2.278407357
                   6      2.97442403e-14     1.776356839e-14     2.042810365e-14     1.232347557e-14
                   7     3.286128874e-14     8.881784197e-15    -3.108624469e-14     5.884182031e-15
                   8     2.149095867e-14     1.704192343e-14     1.199040867e-14    -5.259681579e-15
                   9          12.9754052                12.6                -2.1        -2.278407357
                  10     1.820799608e-14    -3.552713679e-15     1.643130076e-14    -6.994405055e-15
                  11     1.372417091e-14    -9.769962617e-15     3.996802889e-15    -8.770761895e-15
                  12     4.538600085e-14      -2.9823366e-14     -3.15303339e-14     1.327757349e-14
                  13          12.9754052                12.6                -2.1         2.278407357
                  14     2.919042157e-14    -1.953992523e-14     2.087219286e-14    -5.884182031e-15
                  15     6.268998449e-14    -1.509903313e-14    -5.240252676e-14    -3.091971124e-14
                  16     3.106247765e-14     2.203792704e-14    -2.176037128e-14     2.386112141e-15

*Increment 22

***** Displacement Data ******
              NodeNo           Magnitude      X Displacement      Y Displacement      Z Displacement
----------------------------------------------------------------------------------------------------
                   1                   0                   0                   0                   0
                   2      0.001119524321     0.0007315102788     0.0008404626598    -0.0001088574045
                   3      0.003112666452      0.001193564513      0.002874489833    -3.747527287e-05
                   4      0.005688498112      0.001349158295      0.005526165022    -1.681724798e-05
                   5                   0                   0                   0                   0
                   6      0.001119524321     0.0007315102788     0.0008404626598     0.0001088574045
                   7      0.003112666452      0.001193564513      0.002874489833     3.747527287e-05
                   8      0.005688498112      0.001349158295      0.005526165022     1.681724798e-05
                   9                   0                   0                   0                   0
                  10      0.001119524321    -0.0007315102788     0.0008404626598     0.0001088574045
                  11      0.003112666452     -0.001193564513      0.002874489833     3.747527287e-05
                  12      0.005688498112     -0.001349158295      0.005526165022     1.681724798e-05
                  13                   0                   0                   0                   0
                  14      0.001119524321    -0.0007315102788     0.0008404626598    -0.0001088574045
                  15      0.003112666452     -0.001193564513      0.002874489833    -3.747527287e-05
                  16      0.005688498112     -0.001349158295      0.005526165022    -1.681724798e-05

***** Stress Data ******
          Element No         Integral No           Stress XX           Stress YY           Stress ZZ           Stress XY           Stress XZ           Stress YZ               Mises            YieldFlg
                   1                   1         44.05219875        -24.17157651        -19.88062224         42.91188763        -2.930776274         2.145477138         99.71969999               False
                   1                   2         40.14449705        -28.07927821        -12.06521884        -25.31188763        -2.930776274         8.007029687         77.19180597               False
                   1                   3        -40.14449705         28.07927821         12.06521884        -25.31188763         2.930776274         8.007029687         77.19180597               False
                   1                   4        -44.05219875         24.17157651         19.88062224         42.91188763         2.930776274         2.145477138         99.71969999               False
                   1                   5         44.05219875        -24.17157651        -19.88062224         42.91188763         2.930776274        -2.145477138         99.71969999               False
                   1                   6         40.14449705        -28.07927821        -12.06521884        -25.31188763         2.930776274        -8.007029687         77.19180597               False
                   1                   7        -40.14449705         28.07927821         12.06521884        -25.31188763        -2.930776274        -8.007029687         77.19180597               False
                   1                   8        -44.05219875         24.17157651         19.88062224         42.91188763        -2.930776274        -2.145477138         99.71969999               False
                   2                   1         22.89834716        -20.19480567        -2.703541482         30.34657642          1.92182662         8.745632096         66.42659873               False
                   2                   2         25.46078265        -17.63237018        -7.828412469        -12.74657642          1.92182662         4.901978856         45.83937209               False
                   2                   3        -25.46078265         17.63237018         7.828412469        -12.74657642         -1.92182662         4.901978856         45.83937209               False
                   2                   4        -22.89834716         20.19480567         2.703541482         30.34657642         -1.92182662         8.745632096         66.42659873               False
                   2                   5         22.89834716        -20.19480567        -2.703541482         30.34657642         -1.92182662        -8.745632096         66.42659873               False
                   2                   6         25.46078265        -17.63237018        -7.828412469        -12.74657642         -1.92182662        -4.901978856         45.83937209               False
                   2                   7        -25.46078265         17.63237018         7.828412469        -12.74657642          1.92182662        -4.901978856         45.83937209               False
                   2                   8        -22.89834716         20.19480567         2.703541482         30.34657642          1.92182662        -8.745632096         66.42659873               False
                   3                   1         7.615591491        -6.895749616       -0.7198418752         16.05567055        0.5561775933          3.08795387         31.01593464               False
                   3                   2         8.357161615        -6.154179491        -2.202982124         1.544329447        0.5561775933         1.975598684         13.73483309               False
                   3                   3        -8.357161615         6.154179491         2.202982124         1.544329447       -0.5561775933         1.975598684         13.73483309               False
                   3                   4        -7.615591491         6.895749616        0.7198418752         16.05567055       -0.5561775933          3.08795387         31.01593464               False
                   3                   5         7.615591491        -6.895749616       -0.7198418752         16.05567055       -0.5561775933         -3.08795387         31.01593464               False
                   3                   6         8.357161615        -6.154179491        -2.202982124         1.544329447       -0.5561775933        -1.975598684         13.73483309               False
                   3                   7        -8.357161615         6.154179491         2.202982124         1.544329447        0.5561775933        -1.975598684         13.73483309               False
                   3                   8        -7.615591491         6.895749616        0.7198418752         16.05567055        0.5561775933         -3.08795387         31.01593464               False

***** Strain Data ******
          Element No         Integral No           Strain XX           Strain YY           Strain ZZ           Strain XY           Strain XZ           Strain YZ
                   1                   1     0.0002727040875    -0.0001496335689    -0.0001230705186     0.0005312900373    -3.628580149e-05     2.656305029e-05
                   1                   2     0.0002485135532    -0.0001738241032    -7.468944995e-05    -0.0003133852754    -3.628580149e-05     9.913465327e-05
                   1                   3    -0.0002485135532     0.0001738241032     7.468944995e-05    -0.0003133852754     3.628580149e-05     9.913465327e-05
                   1                   4    -0.0002727040875     0.0001496335689     0.0001230705186     0.0005312900373     3.628580149e-05     2.656305029e-05
                   1                   5     0.0002727040875    -0.0001496335689    -0.0001230705186     0.0005312900373     3.628580149e-05    -2.656305029e-05
                   1                   6     0.0002485135532    -0.0001738241032    -7.468944995e-05    -0.0003133852754     3.628580149e-05    -9.913465327e-05
                   1                   7    -0.0002485135532     0.0001738241032     7.468944995e-05    -0.0003133852754    -3.628580149e-05    -9.913465327e-05
                   1                   8    -0.0002727040875     0.0001496335689     0.0001230705186     0.0005312900373    -3.628580149e-05    -2.656305029e-05
                   2                   1     0.0001417516729    -0.0001250154637    -1.673620918e-05     0.0003757195175     2.379404387e-05     0.0001082792545
                   2                   2     0.0001576143688    -0.0001091527678      -4.8461601e-05    -0.0001578147556     2.379404387e-05     6.069116679e-05
                   2                   3    -0.0001576143688     0.0001091527678       4.8461601e-05    -0.0001578147556    -2.379404387e-05     6.069116679e-05
                   2                   4    -0.0001417516729     0.0001250154637     1.673620918e-05     0.0003757195175    -2.379404387e-05     0.0001082792545
                   2                   5     0.0001417516729    -0.0001250154637    -1.673620918e-05     0.0003757195175    -2.379404387e-05    -0.0001082792545
                   2                   6     0.0001576143688    -0.0001091527678      -4.8461601e-05    -0.0001578147556    -2.379404387e-05    -6.069116679e-05
                   2                   7    -0.0001576143688     0.0001091527678       4.8461601e-05    -0.0001578147556     2.379404387e-05    -6.069116679e-05
                   2                   8    -0.0001417516729     0.0001250154637     1.673620918e-05     0.0003757195175     2.379404387e-05    -0.0001082792545
                   3                   1      4.71441378e-05    -4.268797381e-05    -4.456163989e-06     0.0001987844926     6.886008298e-06     3.823180982e-05
                   3                   2        5.173481e-05    -3.809730161e-05    -1.363750839e-05     1.912026934e-05     6.886008298e-06     2.445979323e-05
                   3                   3       -5.173481e-05     3.809730161e-05     1.363750839e-05     1.912026934e-05    -6.886008298e-06     2.445979323e-05
                   3                   4     -4.71441378e-05     4.268797381e-05     4.456163989e-06     0.0001987844926    -6.886008298e-06     3.823180982e-05
                   3                   5      4.71441378e-05    -4.268797381e-05    -4.456163989e-06     0.0001987844926    -6.886008298e-06    -3.823180982e-05
                   3                   6        5.173481e-05    -3.809730161e-05    -1.363750839e-05     1.912026934e-05    -6.886008298e-06    -2.445979323e-05
                   3                   7       -5.173481e-05     3.809730161e-05     1.363750839e-05     1.912026934e-05     6.886008298e-06    -2.445979323e-05
                   3                   8     -4.71441378e-05     4.268797381e-05     4.456163989e-06     0.0001987844926     6.886008298e-06    -3.823180982e-05

***** Plastic Strain Data ******
          Element No         Integral No          PStrain XX          PStrain YY          PStrain ZZ          PStrain XY          PStrain XZ          PStrain YZ
                   1                   1                   0                   0                   0                   0                   0                   0
                   1                   2                   0                   0                   0                   0                   0                   0
                   1                   3                   0                   0                   0                   0                   0                   0
                   1                   4                   0                   0                   0                   0                   0                   0
                   1                   5                   0                   0                   0                   0                   0                   0
                   1                   6                   0                   0                   0                   0                   0                   0
                   1                   7                   0                   0                   0                   0                   0                   0
                   1                   8                   0                   0                   0                   0                   0                   0
                   2                   1                   0                   0                   0                   0                   0                   0
                   2                   2                   0                   0                   0                   0                   0                   0
                   2                   3                   0                   0                   0                   0                   0                   0
                   2                   4                   0                   0                   0                   0                   0                   0
                   2                   5                   0                   0                   0                   0                   0                   0
                   2                   6                   0                   0                   0                   0                   0                   0
                   2                   7                   0                   0                   0                   0                   0                   0
                   2                   8                   0                   0                   0                   0                   0                   0
                   3                   1                   0                   0                   0                   0                   0                   0
                   3                   2                   0                   0                   0                   0                   0                   0
                   3                   3                   0                   0                   0                   0                   0                   0
                   3                   4                   0                   0                   0                   0                   0                   0
                   3                   5                   0                   0                   0                   0                   0                   0
                   3                   6                   0                   0                   0                   0                   0                   0
                   3                   7                   0                   0                   0                   0                   0                   0
                   3                   8                   0                   0                   0                   0                   0                   0

***** Reaction Force Data ******
              NodeNo           Magnitude             X Force             Y Force             Z Force----------------------------------------------------------------------------------------------------
                   1         13.59328164               -13.2                -2.2         2.386902945
                   2     1.454858212e-14     1.065814104e-14     6.661338148e-15    -7.327471963e-15
                   3     5.691734049e-14     3.819167205e-14     4.218847494e-14     1.054711873e-15
                   4     4.208874527e-14     3.211320099e-14     -2.26485497e-14     1.507474701e-14
                   5         13.59328164               -13.2                -2.2        -2.386902945
                   6     3.388272622e-14     1.243449788e-14     2.886579864e-14     1.265654248e-14
                   7     5.784347196e-14     3.552713679e-15    -5.684341886e-14     1.010302952e-14
                   8     2.631047404e-14     2.520206266e-14    -7.549516567e-15     3.191891196e-16
                   9         13.59328164                13.2                -2.2        -2.386902945
                  10     1.768568203e-14    -1.065814104e-14     1.287858709e-14    -5.773159728e-15
                  11     3.441051148e-14    -2.575717417e-14     7.993605777e-15    -2.137179322e-14
                  12     2.706374313e-14    -1.493249968e-14    -2.042810365e-14     9.599959716e-15
                  13         13.59328164                13.2                -2.2         2.386902945
                  14     3.051316246e-14    -2.486899575e-14     1.598721155e-14    -7.549516567e-15
                  15      4.53346695e-14    -2.664535259e-14    -3.019806627e-14    -2.081668171e-14
                  16     2.834911202e-14     2.703393065e-14    -3.996802889e-15      7.54084295e-15

*Increment 23

***** Displacement Data ******
              NodeNo           Magnitude      X Displacement      Y Displacement      Z Displacement
----------------------------------------------------------------------------------------------------
                   1                   0                   0                   0                   0
                   2       0.00117041179      0.000764760746      0.000878665508    -0.0001138054683
                   3      0.003254151291      0.001247817446      0.003005148461    -3.917869436e-05
                   4      0.005947066208      0.001410483672      0.005777354341    -1.758166834e-05
                   5                   0                   0                   0                   0
                   6       0.00117041179      0.000764760746      0.000878665508     0.0001138054683
                   7      0.003254151291      0.001247817446      0.003005148461     3.917869436e-05
                   8      0.005947066208      0.001410483672      0.005777354341     1.758166834e-05
                   9                   0                   0                   0                   0
                  10       0.00117041179     -0.000764760746      0.000878665508     0.0001138054683
                  11      0.003254151291     -0.001247817446      0.003005148461     3.917869436e-05
                  12      0.005947066208     -0.001410483672      0.005777354341     1.758166834e-05
                  13                   0                   0                   0                   0
                  14       0.00117041179     -0.000764760746      0.000878665508    -0.0001138054683
                  15      0.003254151291     -0.001247817446      0.003005148461    -3.917869436e-05
                  16      0.005947066208     -0.001410483672      0.005777354341    -1.758166834e-05

***** Stress Data ******
          Element No         Integral No           Stress XX           Stress YY           Stress ZZ           Stress XY           Stress XZ           Stress YZ               Mises            YieldFlg
                   1                   1         46.05457142        -25.27028454        -20.78428688         44.86242798        -3.063993378         2.242998827         104.2524136               False
                   1                   2         41.96924692        -29.35560904        -12.61363788        -26.46242798        -3.063993378         8.370985582         80.70052443               False
                   1                   3        -41.96924692         29.35560904         12.61363788        -26.46242798         3.063993378         8.370985582         80.70052443               False
                   1                   4        -46.05457142         25.27028454         20.78428688         44.86242798         3.063993378         2.242998827         104.2524136               False
                   1                   5         46.05457142        -25.27028454        -20.78428688         44.86242798         3.063993378        -2.242998827         104.2524136               False
                   1                   6         41.96924692        -29.35560904        -12.61363788        -26.46242798         3.063993378        -8.370985582         80.70052443               False
                   1                   7        -41.96924692         29.35560904         12.61363788        -26.46242798        -3.063993378        -8.370985582         80.70052443               False
                   1                   8        -46.05457142         25.27028454         20.78428688         44.86242798        -3.063993378        -2.242998827         104.2524136               False
                   2                   1         23.93918112        -21.11275139        -2.826429732         31.72596625         2.009182376         9.143160828         69.44598958               False
                   2                   2         26.61809095        -18.43384155          -8.1842494        -13.32596625         2.009182376         5.124796077         47.92297991               False
                   2                   3        -26.61809095         18.43384155           8.1842494        -13.32596625        -2.009182376         5.124796077         47.92297991               False
                   2                   4        -23.93918112         21.11275139         2.826429732         31.72596625        -2.009182376         9.143160828         69.44598958               False
                   2                   5         23.93918112        -21.11275139        -2.826429732         31.72596625        -2.009182376        -9.143160828         69.44598958               False
                   2                   6         26.61809095        -18.43384155          -8.1842494        -13.32596625        -2.009182376        -5.124796077         47.92297991               False
                   2                   7        -26.61809095         18.43384155           8.1842494        -13.32596625         2.009182376        -5.124796077         47.92297991               False
                   2                   8        -23.93918112         21.11275139         2.826429732         31.72596625         2.009182376        -9.143160828         69.44598958               False
                   3                   1         7.961754741         -7.20919278       -0.7525619605         16.78547376         0.581458393          3.22831541         32.42574986               False
                   3                   2         8.737032598        -6.433914923        -2.303117675          1.61452624         0.581458393         2.065398624         14.35914368               False
                   3                   3        -8.737032598         6.433914923         2.303117675          1.61452624        -0.581458393         2.065398624         14.35914368               False
                   3                   4        -7.961754741          7.20919278        0.7525619605         16.78547376        -0.581458393          3.22831541         32.42574986               False
                   3                   5         7.961754741         -7.20919278       -0.7525619605         16.78547376        -0.581458393         -3.22831541         32.42574986               False
                   3                   6         8.737032598        -6.433914923        -2.303117675          1.61452624        -0.581458393        -2.065398624         14.35914368               False
                   3                   7        -8.737032598         6.433914923         2.303117675          1.61452624         0.581458393        -2.065398624         14.35914368               False
                   3                   8        -7.961754741          7.20919278        0.7525619605         16.78547376         0.581458393         -3.22831541         32.42574986               False

***** Strain Data ******
          Element No         Integral No           Strain XX           Strain YY           Strain ZZ           Strain XY           Strain XZ           Strain YZ
                   1                   1     0.0002850997278    -0.0001564350948    -0.0001286646331     0.0005554395845    -3.793515611e-05     2.777046166e-05
                   1                   2     0.0002598096238    -0.0001817251988    -7.808442495e-05    -0.0003276300607    -3.793515611e-05     0.0001036407739
                   1                   3    -0.0002598096238     0.0001817251988     7.808442495e-05    -0.0003276300607     3.793515611e-05     0.0001036407739
                   1                   4    -0.0002850997278     0.0001564350948     0.0001286646331     0.0005554395845     3.793515611e-05     2.777046166e-05
                   1                   5     0.0002850997278    -0.0001564350948    -0.0001286646331     0.0005554395845     3.793515611e-05    -2.777046166e-05
                   1                   6     0.0002598096238    -0.0001817251988    -7.808442495e-05    -0.0003276300607     3.793515611e-05    -0.0001036407739
                   1                   7    -0.0002598096238     0.0001817251988     7.808442495e-05    -0.0003276300607    -3.793515611e-05    -0.0001036407739
                   1                   8    -0.0002850997278     0.0001564350948     0.0001286646331     0.0005554395845    -3.793515611e-05    -2.777046166e-05
                   2                   1     0.0001481949307    -0.0001306979848    -1.749694596e-05     0.0003927976774     2.487559132e-05     0.0001132010388
                   2                   2     0.0001647786583    -0.0001141142572    -5.066440105e-05    -0.0001649881536     2.487559132e-05     6.344985619e-05
                   2                   3    -0.0001647786583     0.0001141142572     5.066440105e-05    -0.0001649881536    -2.487559132e-05     6.344985619e-05
                   2                   4    -0.0001481949307     0.0001306979848     1.749694596e-05     0.0003927976774    -2.487559132e-05     0.0001132010388
                   2                   5     0.0001481949307    -0.0001306979848    -1.749694596e-05     0.0003927976774    -2.487559132e-05    -0.0001132010388
                   2                   6     0.0001647786583    -0.0001141142572    -5.066440105e-05    -0.0001649881536    -2.487559132e-05    -6.344985619e-05
                   2                   7    -0.0001647786583     0.0001141142572     5.066440105e-05    -0.0001649881536     2.487559132e-05    -6.344985619e-05
                   2                   8    -0.0001481949307     0.0001306979848     1.749694596e-05     0.0003927976774     2.487559132e-05    -0.0001132010388
                   3                   1     4.928705316e-05    -4.462833626e-05    -4.658716898e-06     0.0002078201513     7.199008675e-06     3.996961936e-05
                   3                   2     5.408639227e-05    -3.982899714e-05    -1.425739513e-05     1.998937249e-05     7.199008675e-06     2.557160201e-05
                   3                   3    -5.408639227e-05     3.982899714e-05     1.425739513e-05     1.998937249e-05    -7.199008675e-06     2.557160201e-05
                   3                   4    -4.928705316e-05     4.462833626e-05     4.658716898e-06     0.0002078201513    -7.199008675e-06     3.996961936e-05
                   3                   5     4.928705316e-05    -4.462833626e-05    -4.658716898e-06     0.0002078201513    -7.199008675e-06    -3.996961936e-05
                   3                   6     5.408639227e-05    -3.982899714e-05    -1.425739513e-05     1.998937249e-05    -7.199008675e-06    -2.557160201e-05
                   3                   7    -5.408639227e-05     3.982899714e-05     1.425739513e-05     1.998937249e-05     7.199008675e-06    -2.557160201e-05
                   3                   8    -4.928705316e-05     4.462833626e-05     4.658716898e-06     0.0002078201513     7.199008675e-06    -3.996961936e-05

***** Plastic Strain Data ******
          Element No         Integral No          PStrain XX          PStrain YY          PStrain ZZ          PStrain XY          PStrain XZ          PStrain YZ
                   1                   1                   0                   0                   0                   0                   0                   0
                   1                   2                   0                   0                   0                   0                   0                   0
                   1                   3                   0                   0                   0                   0                   0                   0
                   1                   4                   0                   0                   0                   0                   0                   0
                   1                   5                   0                   0                   0                   0                   0                   0
                   1                   6                   0                   0                   0                   0                   0                   0
                   1                   7                   0                   0                   0                   0                   0                   0
                   1                   8                   0                   0                   0                   0                   0                   0
                   2                   1                   0                   0                   0                   0                   0                   0
                   2                   2                   0                   0                   0                   0                   0                   0
                   2                   3                   0                   0                   0                   0                   0                   0
                   2                   4                   0                   0                   0                   0                   0                   0
                   2                   5                   0                   0                   0                   0                   0                   0
                   2                   6                   0                   0                   0                   0                   0                   0
                   2                   7                   0                   0                   0                   0                   0                   0
                   2                   8                   0                   0                   0                   0                   0                   0
                   3                   1                   0                   0                   0                   0                   0                   0
                   3                   2                   0                   0                   0                   0                   0                   0
                   3                   3                   0                   0                   0                   0                   0                   0
                   3                   4                   0                   0                   0                   0                   0                   0
                   3                   5                   0                   0                   0                   0                   0                   0
                   3                   6                   0                   0                   0                   0                   0                   0
                   3                   7                   0                   0                   0                   0                   0                   0
                   3                   8                   0                   0                   0                   0                   0                   0

***** Reaction Force Data ******
              NodeNo           Magnitude             X Force             Y Force             Z Force----------------------------------------------------------------------------------------------------
                   1         14.21115808               -13.8                -2.3         2.495398534
                   2     1.764800686e-14     1.065814104e-14     1.376676551e-14    -2.886579864e-15
                   3     6.819481103e-14     4.263256415e-14     5.240252676e-14     9.325873407e-15
                   4     4.450451628e-14     3.605449272e-14    -1.776356839e-14     1.910971381e-14
                   5         14.21115808               -13.8                -2.3        -2.495398534
                   6     3.938163107e-14     1.065814104e-14     3.641531521e-14     1.054711873e-14
                   7     2.849193319e-14    -4.440892099e-15    -2.753353101e-14    -5.828670879e-15
                   8     3.138064884e-14     2.886579864e-14     1.110223025e-14     -5.31519273e-15
                   9         14.21115808                13.8                -2.3        -2.495398534
                  10     6.040266291e-15    -1.776356839e-15                   0    -5.773159728e-15
                  11     3.333448098e-14    -2.930988785e-14     1.021405183e-14    -1.215694212e-14
                  12     5.420742004e-14    -3.252953462e-14    -4.263256415e-14     7.920747391e-15
                  13         14.21115808                13.8                -2.3         2.495398534
                  14     2.591366137e-14    -2.486899575e-14     5.773159728e-15    -4.440892099e-15
                  15     6.353990273e-14    -2.753353101e-14    -4.929390229e-14     -2.91433544e-14
                  16     4.008486015e-14     2.847722058e-14    -2.531308496e-14     1.245357983e-14

*Increment 24

***** Displacement Data ******
              NodeNo           Magnitude      X Displacement      Y Displacement      Z Displacement
----------------------------------------------------------------------------------------------------
                   1                   0                   0                   0                   0
                   2      0.001221299259     0.0007980112133     0.0009168683561    -0.0001187535322
                   3       0.00339563613      0.001302070378       0.00313580709    -4.088211586e-05
                   4      0.006205634304      0.001471809049       0.00602854366     -1.83460887e-05
                   5                   0                   0                   0                   0
                   6      0.001221299259     0.0007980112133     0.0009168683561     0.0001187535322
                   7       0.00339563613      0.001302070378       0.00313580709     4.088211586e-05
                   8      0.006205634304      0.001471809049       0.00602854366      1.83460887e-05
                   9                   0                   0                   0                   0
                  10      0.001221299259    -0.0007980112133     0.0009168683561     0.0001187535322
                  11       0.00339563613     -0.001302070378       0.00313580709     4.088211586e-05
                  12      0.006205634304     -0.001471809049       0.00602854366      1.83460887e-05
                  13                   0                   0                   0                   0
                  14      0.001221299259    -0.0007980112133     0.0009168683561    -0.0001187535322
                  15       0.00339563613     -0.001302070378       0.00313580709    -4.088211586e-05
                  16      0.006205634304     -0.001471809049       0.00602854366     -1.83460887e-05

***** Stress Data ******
          Element No         Integral No           Stress XX           Stress YY           Stress ZZ           Stress XY           Stress XZ           Stress YZ               Mises            YieldFlg
                   1                   1         48.05694409        -26.36899256        -21.68795153         46.81296833        -3.197210481         2.340520515         108.7851273               False
                   1                   2         43.79399678        -30.63193987        -13.16205691        -27.61296833        -3.197210481         8.734941477         84.20924288               False
                   1                   3        -43.79399678         30.63193987         13.16205691        -27.61296833         3.197210481         8.734941477         84.20924288               False
                   1                   4        -48.05694409         26.36899256         21.68795153         46.81296833         3.197210481         2.340520515         108.7851273               False
                   1                   5         48.05694409        -26.36899256        -21.68795153         46.81296833         3.197210481        -2.340520515         108.7851273               False
                   1                   6         43.79399678        -30.63193987        -13.16205691        -27.61296833         3.197210481        -8.734941477         84.20924288               False
                   1                   7        -43.79399678         30.63193987         13.16205691        -27.61296833        -3.197210481        -8.734941477         84.20924288               False
                   1                   8        -48.05694409         26.36899256         21.68795153         46.81296833        -3.197210481        -2.340520515         108.7851273               False
                   2                   1         24.98001508         -22.0306971        -2.949317981         33.10535609         2.096538131          9.54068956         72.46538043               False
                   2                   2         27.77539926        -19.23531292         -8.54008633        -13.90535609         2.096538131         5.347613297         50.00658773               False
                   2                   3        -27.77539926         19.23531292          8.54008633        -13.90535609        -2.096538131         5.347613297         50.00658773               False
                   2                   4        -24.98001508          22.0306971         2.949317981         33.10535609        -2.096538131          9.54068956         72.46538043               False
                   2                   5         24.98001508         -22.0306971        -2.949317981         33.10535609        -2.096538131         -9.54068956         72.46538043               False
                   2                   6         27.77539926        -19.23531292         -8.54008633        -13.90535609        -2.096538131        -5.347613297         50.00658773               False
                   2                   7        -27.77539926         19.23531292          8.54008633        -13.90535609         2.096538131        -5.347613297         50.00658773               False
                   2                   8        -24.98001508          22.0306971         2.949317981         33.10535609         2.096538131         -9.54068956         72.46538043               False
                   3                   1          8.30791799        -7.522635944       -0.7852820457         17.51527697        0.6067391927         3.368676949         33.83556507               False
                   3                   2          9.11690358        -6.713650354        -2.403253226         1.684723033        0.6067391927         2.155198564         14.98345428               False
                   3                   3         -9.11690358         6.713650354         2.403253226         1.684723033       -0.6067391927         2.155198564         14.98345428               False
                   3                   4         -8.30791799         7.522635944        0.7852820457         17.51527697       -0.6067391927         3.368676949         33.83556507               False
                   3                   5          8.30791799        -7.522635944       -0.7852820457         17.51527697       -0.6067391927        -3.368676949         33.83556507               False
                   3                   6          9.11690358        -6.713650354        -2.403253226         1.684723033       -0.6067391927        -2.155198564         14.98345428               False
                   3                   7         -9.11690358         6.713650354         2.403253226         1.684723033        0.6067391927        -2.155198564         14.98345428               False
                   3                   8         -8.30791799         7.522635944        0.7852820457         17.51527697        0.6067391927        -3.368676949         33.83556507               False

***** Strain Data ******
          Element No         Integral No           Strain XX           Strain YY           Strain ZZ           Strain XY           Strain XZ           Strain YZ
                   1                   1     0.0002974953682    -0.0001632366206    -0.0001342587476     0.0005795891317    -3.958451072e-05     2.897787304e-05
                   1                   2     0.0002711056944    -0.0001896262944    -8.147939995e-05    -0.0003418748459    -3.958451072e-05     0.0001081468945
                   1                   3    -0.0002711056944     0.0001896262944     8.147939995e-05    -0.0003418748459     3.958451072e-05     0.0001081468945
                   1                   4    -0.0002974953682     0.0001632366206     0.0001342587476     0.0005795891317     3.958451072e-05     2.897787304e-05
                   1                   5     0.0002974953682    -0.0001632366206    -0.0001342587476     0.0005795891317     3.958451072e-05    -2.897787304e-05
                   1                   6     0.0002711056944    -0.0001896262944    -8.147939995e-05    -0.0003418748459     3.958451072e-05    -0.0001081468945
                   1                   7    -0.0002711056944     0.0001896262944     8.147939995e-05    -0.0003418748459    -3.958451072e-05    -0.0001081468945
                   1                   8    -0.0002974953682     0.0001632366206     0.0001342587476     0.0005795891317    -3.958451072e-05    -2.897787304e-05
                   2                   1     0.0001546381886    -0.0001363805059    -1.825768274e-05     0.0004098758373     2.595713877e-05     0.0001181228231
                   2                   2     0.0001719429478    -0.0001190757467    -5.286720109e-05    -0.0001721615516     2.595713877e-05     6.620854559e-05
                   2                   3    -0.0001719429478     0.0001190757467     5.286720109e-05    -0.0001721615516    -2.595713877e-05     6.620854559e-05
                   2                   4    -0.0001546381886     0.0001363805059     1.825768274e-05     0.0004098758373    -2.595713877e-05     0.0001181228231
                   2                   5     0.0001546381886    -0.0001363805059    -1.825768274e-05     0.0004098758373    -2.595713877e-05    -0.0001181228231
                   2                   6     0.0001719429478    -0.0001190757467    -5.286720109e-05    -0.0001721615516    -2.595713877e-05    -6.620854559e-05
                   2                   7    -0.0001719429478     0.0001190757467     5.286720109e-05    -0.0001721615516     2.595713877e-05    -6.620854559e-05
                   2                   8    -0.0001546381886     0.0001363805059     1.825768274e-05     0.0004098758373     2.595713877e-05    -0.0001181228231
                   3                   1     5.142996851e-05     -4.65686987e-05    -4.861269807e-06     0.0002168558101     7.512009052e-06      4.17074289e-05
                   3                   2     5.643797455e-05    -4.156069267e-05    -1.487728188e-05     2.085847564e-05     7.512009052e-06     2.668341079e-05
                   3                   3    -5.643797455e-05     4.156069267e-05     1.487728188e-05     2.085847564e-05    -7.512009052e-06     2.668341079e-05
                   3                   4    -5.142996851e-05      4.65686987e-05     4.861269807e-06     0.0002168558101    -7.512009052e-06      4.17074289e-05
                   3                   5     5.142996851e-05     -4.65686987e-05    -4.861269807e-06     0.0002168558101    -7.512009052e-06     -4.17074289e-05
                   3                   6     5.643797455e-05    -4.156069267e-05    -1.487728188e-05     2.085847564e-05    -7.512009052e-06    -2.668341079e-05
                   3                   7    -5.643797455e-05     4.156069267e-05     1.487728188e-05     2.085847564e-05     7.512009052e-06    -2.668341079e-05
                   3                   8    -5.142996851e-05      4.65686987e-05     4.861269807e-06     0.0002168558101     7.512009052e-06     -4.17074289e-05

***** Plastic Strain Data ******
          Element No         Integral No          PStrain XX          PStrain YY          PStrain ZZ          PStrain XY          PStrain XZ          PStrain YZ
                   1                   1                   0                   0                   0                   0                   0                   0
                   1                   2                   0                   0                   0                   0                   0                   0
                   1                   3                   0                   0                   0                   0                   0                   0
                   1                   4                   0                   0                   0                   0                   0                   0
                   1                   5                   0                   0                   0                   0                   0                   0
                   1                   6                   0                   0                   0                   0                   0                   0
                   1                   7                   0                   0                   0                   0                   0                   0
                   1                   8                   0                   0                   0                   0                   0                   0
                   2                   1                   0                   0                   0                   0                   0                   0
                   2                   2                   0                   0                   0                   0                   0                   0
                   2                   3                   0                   0                   0                   0                   0                   0
                   2                   4                   0                   0                   0                   0                   0                   0
                   2                   5                   0                   0                   0                   0                   0                   0
                   2                   6                   0                   0                   0                   0                   0                   0
                   2                   7                   0                   0                   0                   0                   0                   0
                   2                   8                   0                   0                   0                   0                   0                   0
                   3                   1                   0                   0                   0                   0                   0                   0
                   3                   2                   0                   0                   0                   0                   0                   0
                   3                   3                   0                   0                   0                   0                   0                   0
                   3                   4                   0                   0                   0                   0                   0                   0
                   3                   5                   0                   0                   0                   0                   0                   0
                   3                   6                   0                   0                   0                   0                   0                   0
                   3                   7                   0                   0                   0                   0                   0                   0
                   3                   8                   0                   0                   0                   0                   0                   0

***** Reaction Force Data ******
              NodeNo           Magnitude             X Force             Y Force             Z Force----------------------------------------------------------------------------------------------------
                   1         14.82903451               -14.4                -2.4         2.603894122
                   2     1.410813479e-14     1.065814104e-14     8.437694987e-15    -3.774758284e-15
                   3     3.505427011e-14     3.286260153e-14     1.154631946e-14    -3.941291737e-15
                   4     2.965046769e-14     2.536859611e-14    -9.769962617e-15       1.1837753e-14
                   5         14.82903451               -14.4                -2.4        -2.603894122
                   6     4.061671693e-14     1.065814104e-14     3.774758284e-14     1.054711873e-14
                   7     6.171784116e-14    -6.217248938e-15    -6.128431096e-14    -3.830269435e-15
                   8     3.689634022e-14     3.252953462e-14     1.731947918e-14    -1.790234627e-15
                   9         14.82903451                14.4                -2.4        -2.603894122
                  10     1.577024814e-14    -1.065814104e-14     1.110223025e-14    -3.441691376e-15
                  11     3.989429295e-14    -3.286260153e-14     1.421085472e-14    -1.759703494e-14
                  12     3.550887955e-14    -9.700573678e-15    -3.375077995e-14     5.259681579e-15
                  13         14.82903451                14.4                -2.4         2.603894122
                  14     3.300706309e-14    -2.842170943e-14     1.509903313e-14    -7.327471963e-15
                  15     5.613656943e-14    -4.263256415e-14    -3.019806627e-14    -2.053912596e-14
                  16     5.723745114e-14     4.901634654e-14    -1.287858709e-14      2.66019845e-14

*Increment 25

***** Displacement Data ******
              NodeNo           Magnitude      X Displacement      Y Displacement      Z Displacement
----------------------------------------------------------------------------------------------------
                   1                   0                   0                   0                   0
                   2      0.001272186728     0.0008312616805     0.0009550712043     -0.000123701596
                   3      0.003537120968       0.00135632331      0.003266465719    -4.258553735e-05
                   4        0.0064642024      0.001533134426      0.006279732979    -1.911050906e-05
                   5                   0                   0                   0                   0
                   6      0.001272186728     0.0008312616805     0.0009550712043      0.000123701596
                   7      0.003537120968       0.00135632331      0.003266465719     4.258553735e-05
                   8        0.0064642024      0.001533134426      0.006279732979     1.911050906e-05
                   9                   0                   0                   0                   0
                  10      0.001272186728    -0.0008312616805     0.0009550712043      0.000123701596
                  11      0.003537120968      -0.00135632331      0.003266465719     4.258553735e-05
                  12        0.0064642024     -0.001533134426      0.006279732979     1.911050906e-05
                  13                   0                   0                   0                   0
                  14      0.001272186728    -0.0008312616805     0.0009550712043     -0.000123701596
                  15      0.003537120968      -0.00135632331      0.003266465719    -4.258553735e-05
                  16        0.0064642024     -0.001533134426      0.006279732979    -1.911050906e-05

***** Stress Data ******
          Element No         Integral No           Stress XX           Stress YY           Stress ZZ           Stress XY           Stress XZ           Stress YZ               Mises            YieldFlg
                   1                   1         50.05931676        -27.46770058        -22.59161618         48.76350867        -3.330427584         2.438042203         113.3178409               False
                   1                   2         45.61874665         -31.9082707        -13.71047595        -28.76350867        -3.330427584         9.098897372         87.71796133               False
                   1                   3        -45.61874665          31.9082707         13.71047595        -28.76350867         3.330427584         9.098897372         87.71796133               False
                   1                   4        -50.05931676         27.46770058         22.59161618         48.76350867         3.330427584         2.438042203         113.3178409               False
                   1                   5         50.05931676        -27.46770058        -22.59161618         48.76350867         3.330427584        -2.438042203         113.3178409               False
                   1                   6         45.61874665         -31.9082707        -13.71047595        -28.76350867         3.330427584        -9.098897372         87.71796133               False
                   1                   7        -45.61874665          31.9082707         13.71047595        -28.76350867        -3.330427584        -9.098897372         87.71796133               False
                   1                   8        -50.05931676         27.46770058         22.59161618         48.76350867        -3.330427584        -2.438042203         113.3178409               False
                   2                   1         26.02084904        -22.94864281         -3.07220623         34.48474593         2.183893887         9.938218291         75.48477128               False
                   2                   2         28.93270756         -20.0367843        -8.895923261        -14.48474593         2.183893887         5.570430518         52.09019556               False
                   2                   3        -28.93270756          20.0367843         8.895923261        -14.48474593        -2.183893887         5.570430518         52.09019556               False
                   2                   4        -26.02084904         22.94864281          3.07220623         34.48474593        -2.183893887         9.938218291         75.48477128               False
                   2                   5         26.02084904        -22.94864281         -3.07220623         34.48474593        -2.183893887        -9.938218291         75.48477128               False
                   2                   6         28.93270756         -20.0367843        -8.895923261        -14.48474593        -2.183893887        -5.570430518         52.09019556               False
                   2                   7        -28.93270756          20.0367843         8.895923261        -14.48474593         2.183893887        -5.570430518         52.09019556               False
                   2                   8        -26.02084904         22.94864281          3.07220623         34.48474593         2.183893887        -9.938218291         75.48477128               False
                   3                   1          8.65408124        -7.836079109       -0.8180021309         18.24508017        0.6320199924         3.509038489         35.24538028               False
                   3                   2         9.496774563        -6.993385786        -2.503388777         1.754919826        0.6320199924         2.244998504         15.60776487               False
                   3                   3        -9.496774563         6.993385786         2.503388777         1.754919826       -0.6320199924         2.244998504         15.60776487               False
                   3                   4         -8.65408124         7.836079109        0.8180021309         18.24508017       -0.6320199924         3.509038489         35.24538028               False
                   3                   5          8.65408124        -7.836079109       -0.8180021309         18.24508017       -0.6320199924        -3.509038489         35.24538028               False
                   3                   6         9.496774563        -6.993385786        -2.503388777         1.754919826       -0.6320199924        -2.244998504         15.60776487               False
                   3                   7        -9.496774563         6.993385786         2.503388777         1.754919826        0.6320199924        -2.244998504         15.60776487               False
                   3                   8         -8.65408124         7.836079109        0.8180021309         18.24508017        0.6320199924        -3.509038489         35.24538028               False

***** Strain Data ******
          Element No         Integral No           Strain XX           Strain YY           Strain ZZ           Strain XY           Strain XZ           Strain YZ
                   1                   1     0.0003098910085    -0.0001700381465    -0.0001398528621     0.0006037386788    -4.123386533e-05     3.018528442e-05
                   1                   2      0.000282401765      -0.00019752739    -8.487437495e-05    -0.0003561196312    -4.123386533e-05     0.0001126530151
                   1                   3     -0.000282401765       0.00019752739     8.487437495e-05    -0.0003561196312     4.123386533e-05     0.0001126530151
                   1                   4    -0.0003098910085     0.0001700381465     0.0001398528621     0.0006037386788     4.123386533e-05     3.018528442e-05
                   1                   5     0.0003098910085    -0.0001700381465    -0.0001398528621     0.0006037386788     4.123386533e-05    -3.018528442e-05
                   1                   6      0.000282401765      -0.00019752739    -8.487437495e-05    -0.0003561196312     4.123386533e-05    -0.0001126530151
                   1                   7     -0.000282401765       0.00019752739     8.487437495e-05    -0.0003561196312    -4.123386533e-05    -0.0001126530151
                   1                   8    -0.0003098910085     0.0001700381465     0.0001398528621     0.0006037386788    -4.123386533e-05    -3.018528442e-05
                   2                   1     0.0001610814465    -0.0001420630269    -1.901841952e-05     0.0004269539972     2.703868621e-05     0.0001230446074
                   2                   2     0.0001791072373    -0.0001240372361    -5.507000114e-05    -0.0001793349496     2.703868621e-05     6.896723499e-05
                   2                   3    -0.0001791072373     0.0001240372361     5.507000114e-05    -0.0001793349496    -2.703868621e-05     6.896723499e-05
                   2                   4    -0.0001610814465     0.0001420630269     1.901841952e-05     0.0004269539972    -2.703868621e-05     0.0001230446074
                   2                   5     0.0001610814465    -0.0001420630269    -1.901841952e-05     0.0004269539972    -2.703868621e-05    -0.0001230446074
                   2                   6     0.0001791072373    -0.0001240372361    -5.507000114e-05    -0.0001793349496    -2.703868621e-05    -6.896723499e-05
                   2                   7    -0.0001791072373     0.0001240372361     5.507000114e-05    -0.0001793349496     2.703868621e-05    -6.896723499e-05
                   2                   8    -0.0001610814465     0.0001420630269     1.901841952e-05     0.0004269539972     2.703868621e-05    -0.0001230446074
                   3                   1     5.357288387e-05    -4.850906115e-05    -5.063822715e-06     0.0002258914688      7.82500943e-06     4.344523843e-05
                   3                   2     5.878955682e-05     -4.32923882e-05    -1.549716862e-05     2.172757879e-05      7.82500943e-06     2.779521958e-05
                   3                   3    -5.878955682e-05      4.32923882e-05     1.549716862e-05     2.172757879e-05     -7.82500943e-06     2.779521958e-05
                   3                   4    -5.357288387e-05     4.850906115e-05     5.063822715e-06     0.0002258914688     -7.82500943e-06     4.344523843e-05
                   3                   5     5.357288387e-05    -4.850906115e-05    -5.063822715e-06     0.0002258914688     -7.82500943e-06    -4.344523843e-05
                   3                   6     5.878955682e-05     -4.32923882e-05    -1.549716862e-05     2.172757879e-05     -7.82500943e-06    -2.779521958e-05
                   3                   7    -5.878955682e-05      4.32923882e-05     1.549716862e-05     2.172757879e-05      7.82500943e-06    -2.779521958e-05
                   3                   8    -5.357288387e-05     4.850906115e-05     5.063822715e-06     0.0002258914688      7.82500943e-06    -4.344523843e-05

***** Plastic Strain Data ******
          Element No         Integral No          PStrain XX          PStrain YY          PStrain ZZ          PStrain XY          PStrain XZ          PStrain YZ
                   1                   1                   0                   0                   0                   0                   0                   0
                   1                   2                   0                   0                   0                   0                   0                   0
                   1                   3                   0                   0                   0                   0                   0                   0
                   1                   4                   0                   0                   0                   0                   0                   0
                   1                   5                   0                   0                   0                   0                   0                   0
                   1                   6                   0                   0                   0                   0                   0                   0
                   1                   7                   0                   0                   0                   0                   0                   0
                   1                   8                   0                   0                   0                   0                   0                   0
                   2                   1                   0                   0                   0                   0                   0                   0
                   2                   2                   0                   0                   0                   0                   0                   0
                   2                   3                   0                   0                   0                   0                   0                   0
                   2                   4                   0                   0                   0                   0                   0                   0
                   2                   5                   0                   0                   0                   0                   0                   0
                   2                   6                   0                   0                   0                   0                   0                   0
                   2                   7                   0                   0                   0                   0                   0                   0
                   2                   8                   0                   0                   0                   0                   0                   0
                   3                   1                   0                   0                   0                   0                   0                   0
                   3                   2                   0                   0                   0                   0                   0                   0
                   3                   3                   0                   0                   0                   0                   0                   0
                   3                   4                   0                   0                   0                   0                   0                   0
                   3                   5                   0                   0                   0                   0                   0                   0
                   3                   6                   0                   0                   0                   0                   0                   0
                   3                   7                   0                   0                   0                   0                   0                   0
                   3                   8                   0                   0                   0                   0                   0                   0

***** Reaction Force Data ******
              NodeNo           Magnitude             X Force             Y Force             Z Force----------------------------------------------------------------------------------------------------
                   1         15.44691095                 -15                -2.5          2.71238971
                   2     2.961300103e-14     1.953992523e-14     2.220446049e-14    -1.443289932e-15
                   3     6.590134621e-14     5.329070518e-14     3.863576126e-14    -3.219646771e-15
                   4     5.309770301e-14      3.05033776e-14    -3.819167205e-14     2.074382333e-14
                   5         15.44691095                 -15                -2.5         -2.71238971
                   6     5.665586774e-14     3.019806627e-14     4.751754545e-14      6.32827124e-15
                   7     3.773076248e-14                   0    -3.730349363e-14    -5.662137426e-15
                   8     3.395395561e-14     3.042011087e-14     1.065814104e-14    -1.067201882e-14
                   9         15.44691095                  15                -2.5         -2.71238971
                  10     6.226163981e-15    -5.329070518e-15                   0     3.219646771e-15
                  11     5.084433587e-14     -4.97379915e-14     5.329070518e-15    -9.103828802e-15
                  12     4.481997871e-14    -2.831068713e-14    -3.064215548e-14     1.638272851e-14
                  13         15.44691095                  15                -2.5          2.71238971
                  14     2.975729097e-14    -2.664535259e-14     8.437694987e-15    -1.021405183e-14
                  15     8.294198248e-14    -6.217248938e-14    -4.662936703e-14    -2.897682094e-14
                  16     5.288919023e-14     4.679590049e-14     -1.82076576e-14     1.660997728e-14

*Increment 26

***** Displacement Data ******
              NodeNo           Magnitude      X Displacement      Y Displacement      Z Displacement
----------------------------------------------------------------------------------------------------
                   1                   0                   0                   0                   0
                   2      0.001323074197     0.0008645121477     0.0009932740525    -0.0001286496598
                   3      0.003678605807      0.001410576243      0.003397124348    -4.428895885e-05
                   4      0.006722770496      0.001594459803      0.006530922298    -1.987492943e-05
                   5                   0                   0                   0                   0
                   6      0.001323074197     0.0008645121477     0.0009932740525     0.0001286496598
                   7      0.003678605807      0.001410576243      0.003397124348     4.428895885e-05
                   8      0.006722770496      0.001594459803      0.006530922298     1.987492943e-05
                   9                   0                   0                   0                   0
                  10      0.001323074197    -0.0008645121477     0.0009932740525     0.0001286496598
                  11      0.003678605807     -0.001410576243      0.003397124348     4.428895885e-05
                  12      0.006722770496     -0.001594459803      0.006530922298     1.987492943e-05
                  13                   0                   0                   0                   0
                  14      0.001323074197    -0.0008645121477     0.0009932740525    -0.0001286496598
                  15      0.003678605807     -0.001410576243      0.003397124348    -4.428895885e-05
                  16      0.006722770496     -0.001594459803      0.006530922298    -1.987492943e-05

***** Stress Data ******
          Element No         Integral No           Stress XX           Stress YY           Stress ZZ           Stress XY           Stress XZ           Stress YZ               Mises            YieldFlg
                   1                   1         52.06168943        -28.56640861        -23.49528083         50.71404902        -3.463644688         2.535563891         117.8505545               False
                   1                   2         47.44349652        -33.18460152        -14.25889499        -29.91404902        -3.463644688         9.462853267         91.22667979               False
                   1                   3        -47.44349652         33.18460152         14.25889499        -29.91404902         3.463644688         9.462853267         91.22667979               False
                   1                   4        -52.06168943         28.56640861         23.49528083         50.71404902         3.463644688         2.535563891         117.8505545               False
                   1                   5         52.06168943        -28.56640861        -23.49528083         50.71404902         3.463644688        -2.535563891         117.8505545               False
                   1                   6         47.44349652        -33.18460152        -14.25889499        -29.91404902         3.463644688        -9.462853267         91.22667979               False
                   1                   7        -47.44349652         33.18460152         14.25889499        -29.91404902        -3.463644688        -9.462853267         91.22667979               False
                   1                   8        -52.06168943         28.56640861         23.49528083         50.71404902        -3.463644688        -2.535563891         117.8505545               False
                   2                   1           27.061683        -23.86658852        -3.195094479         35.86413576         2.271249642         10.33574702         78.50416213               False
                   2                   2         30.09001586        -20.83825567        -9.251760191        -15.06413576         2.271249642         5.793247739         54.17380338               False
                   2                   3        -30.09001586         20.83825567         9.251760191        -15.06413576        -2.271249642         5.793247739         54.17380338               False
                   2                   4          -27.061683         23.86658852         3.195094479         35.86413576        -2.271249642         10.33574702         78.50416213               False
                   2                   5           27.061683        -23.86658852        -3.195094479         35.86413576        -2.271249642        -10.33574702         78.50416213               False
                   2                   6         30.09001586        -20.83825567        -9.251760191        -15.06413576        -2.271249642        -5.793247739         54.17380338               False
                   2                   7        -30.09001586         20.83825567         9.251760191        -15.06413576         2.271249642        -5.793247739         54.17380338               False
                   2                   8          -27.061683         23.86658852         3.195094479         35.86413576         2.271249642        -10.33574702         78.50416213               False
                   3                   1         9.000244489        -8.149522273       -0.8507222162         18.97488338        0.6573007921         3.649400029         36.65519549               False
                   3                   2         9.876645545        -7.273121217        -2.603524328         1.825116619        0.6573007921         2.334798444         16.23207547               False
                   3                   3        -9.876645545         7.273121217         2.603524328         1.825116619       -0.6573007921         2.334798444         16.23207547               False
                   3                   4        -9.000244489         8.149522273        0.8507222162         18.97488338       -0.6573007921         3.649400029         36.65519549               False
                   3                   5         9.000244489        -8.149522273       -0.8507222162         18.97488338       -0.6573007921        -3.649400029         36.65519549               False
                   3                   6         9.876645545        -7.273121217        -2.603524328         1.825116619       -0.6573007921        -2.334798444         16.23207547               False
                   3                   7        -9.876645545         7.273121217         2.603524328         1.825116619        0.6573007921        -2.334798444         16.23207547               False
                   3                   8        -9.000244489         8.149522273        0.8507222162         18.97488338        0.6573007921        -3.649400029         36.65519549               False

***** Strain Data ******
          Element No         Integral No           Strain XX           Strain YY           Strain ZZ           Strain XY           Strain XZ           Strain YZ
                   1                   1     0.0003222866489    -0.0001768396723    -0.0001454469765      0.000627888226    -4.288321994e-05     3.139269579e-05
                   1                   2     0.0002936978356    -0.0002054284856    -8.826934994e-05    -0.0003703644164    -4.288321994e-05     0.0001171591357
                   1                   3    -0.0002936978356     0.0002054284856     8.826934994e-05    -0.0003703644164     4.288321994e-05     0.0001171591357
                   1                   4    -0.0003222866489     0.0001768396723     0.0001454469765      0.000627888226     4.288321994e-05     3.139269579e-05
                   1                   5     0.0003222866489    -0.0001768396723    -0.0001454469765      0.000627888226     4.288321994e-05    -3.139269579e-05
                   1                   6     0.0002936978356    -0.0002054284856    -8.826934994e-05    -0.0003703644164     4.288321994e-05    -0.0001171591357
                   1                   7    -0.0002936978356     0.0002054284856     8.826934994e-05    -0.0003703644164    -4.288321994e-05    -0.0001171591357
                   1                   8    -0.0003222866489     0.0001768396723     0.0001454469765      0.000627888226    -4.288321994e-05    -3.139269579e-05
                   2                   1     0.0001675247043     -0.000147745548     -1.97791563e-05     0.0004440321571     2.812023366e-05     0.0001279663917
                   2                   2     0.0001862715268    -0.0001289987256    -5.727280118e-05    -0.0001865083476     2.812023366e-05     7.172592439e-05
                   2                   3    -0.0001862715268     0.0001289987256     5.727280118e-05    -0.0001865083476    -2.812023366e-05     7.172592439e-05
                   2                   4    -0.0001675247043      0.000147745548      1.97791563e-05     0.0004440321571    -2.812023366e-05     0.0001279663917
                   2                   5     0.0001675247043     -0.000147745548     -1.97791563e-05     0.0004440321571    -2.812023366e-05    -0.0001279663917
                   2                   6     0.0001862715268    -0.0001289987256    -5.727280118e-05    -0.0001865083476    -2.812023366e-05    -7.172592439e-05
                   2                   7    -0.0001862715268     0.0001289987256     5.727280118e-05    -0.0001865083476     2.812023366e-05    -7.172592439e-05
                   2                   8    -0.0001675247043      0.000147745548      1.97791563e-05     0.0004440321571     2.812023366e-05    -0.0001279663917
                   3                   1     5.571579922e-05     -5.04494236e-05    -5.266375624e-06     0.0002349271276     8.138009807e-06     4.518304797e-05
                   3                   2     6.114113909e-05    -4.502408372e-05    -1.611705537e-05     2.259668195e-05     8.138009807e-06     2.890702836e-05
                   3                   3    -6.114113909e-05     4.502408372e-05     1.611705537e-05     2.259668195e-05    -8.138009807e-06     2.890702836e-05
                   3                   4    -5.571579922e-05      5.04494236e-05     5.266375624e-06     0.0002349271276    -8.138009807e-06     4.518304797e-05
                   3                   5     5.571579922e-05     -5.04494236e-05    -5.266375624e-06     0.0002349271276    -8.138009807e-06    -4.518304797e-05
                   3                   6     6.114113909e-05    -4.502408372e-05    -1.611705537e-05     2.259668195e-05    -8.138009807e-06    -2.890702836e-05
                   3                   7    -6.114113909e-05     4.502408372e-05     1.611705537e-05     2.259668195e-05     8.138009807e-06    -2.890702836e-05
                   3                   8    -5.571579922e-05      5.04494236e-05     5.266375624e-06     0.0002349271276     8.138009807e-06    -4.518304797e-05

***** Plastic Strain Data ******
          Element No         Integral No          PStrain XX          PStrain YY          PStrain ZZ          PStrain XY          PStrain XZ          PStrain YZ
                   1                   1                   0                   0                   0                   0                   0                   0
                   1                   2                   0                   0                   0                   0                   0                   0
                   1                   3                   0                   0                   0                   0                   0                   0
                   1                   4                   0                   0                   0                   0                   0                   0
                   1                   5                   0                   0                   0                   0                   0                   0
                   1                   6                   0                   0                   0                   0                   0                   0
                   1                   7                   0                   0                   0                   0                   0                   0
                   1                   8                   0                   0                   0                   0                   0                   0
                   2                   1                   0                   0                   0                   0                   0                   0
                   2                   2                   0                   0                   0                   0                   0                   0
                   2                   3                   0                   0                   0                   0                   0                   0
                   2                   4                   0                   0                   0                   0                   0                   0
                   2                   5                   0                   0                   0                   0                   0                   0
                   2                   6                   0                   0                   0                   0                   0                   0
                   2                   7                   0                   0                   0                   0                   0                   0
                   2                   8                   0                   0                   0                   0                   0                   0
                   3                   1                   0                   0                   0                   0                   0                   0
                   3                   2                   0                   0                   0                   0                   0                   0
                   3                   3                   0                   0                   0                   0                   0                   0
                   3                   4                   0                   0                   0                   0                   0                   0
                   3                   5                   0                   0                   0                   0                   0                   0
                   3                   6                   0                   0                   0                   0                   0                   0
                   3                   7                   0                   0                   0                   0                   0                   0
                   3                   8                   0                   0                   0                   0                   0                   0

***** Reaction Force Data ******
              NodeNo           Magnitude             X Force             Y Force             Z Force----------------------------------------------------------------------------------------------------
                   1         16.06478739               -15.6                -2.6         2.820885299
                   2      2.86069381e-14     2.486899575e-14     1.376676551e-14    -3.219646771e-15
                   3     4.967255558e-14     4.440892099e-14     2.042810365e-14    -8.826273046e-15
                   4     4.019844913e-14     3.161360063e-14    -1.731947918e-14     1.779132397e-14
                   5         16.06478739               -15.6                -2.6        -2.820885299
                   6     5.104720473e-14     2.664535259e-14     4.218847494e-14     1.076916334e-14
                   7     6.588254637e-14    -8.881784197e-15    -6.528111385e-14                   0
                   8     2.573289155e-14     2.509104036e-14     3.996802889e-15    -4.080069615e-15
                   9         16.06478739                15.6                -2.6        -2.820885299
                  10     2.204959947e-14    -1.243449788e-14      1.82076576e-14    -2.220446049e-16
                  11      4.65003233e-14    -4.440892099e-14    -8.881784197e-15    -1.054711873e-14
                  12     3.231514633e-14    -1.565414465e-14    -2.620126338e-14     1.061650767e-14
                  13         16.06478739                15.6                -2.6         2.820885299
                  14     3.765620537e-14    -2.842170943e-14     2.309263891e-14    -8.770761895e-15
                  15     7.466982387e-14     -5.86197757e-14    -3.819167205e-14    -2.609024108e-14
                  16     6.151875573e-14     5.928590951e-14    -3.996802889e-15     1.592996568e-14

*Increment 27

***** Displacement Data ******
              NodeNo           Magnitude      X Displacement      Y Displacement      Z Displacement
----------------------------------------------------------------------------------------------------
                   1                   0                   0                   0                   0
                   2      0.001373961667     0.0008977626149      0.001031476901    -0.0001335977237
                   3      0.003820090646      0.001464829175      0.003527782977    -4.599238034e-05
                   4      0.006981338592       0.00165578518      0.006782111617    -2.063934979e-05
                   5                   0                   0                   0                   0
                   6      0.001373961667     0.0008977626149      0.001031476901     0.0001335977237
                   7      0.003820090646      0.001464829175      0.003527782977     4.599238034e-05
                   8      0.006981338592       0.00165578518      0.006782111617     2.063934979e-05
                   9                   0                   0                   0                   0
                  10      0.001373961667    -0.0008977626149      0.001031476901     0.0001335977237
                  11      0.003820090646     -0.001464829175      0.003527782977     4.599238034e-05
                  12      0.006981338592      -0.00165578518      0.006782111617     2.063934979e-05
                  13                   0                   0                   0                   0
                  14      0.001373961667    -0.0008977626149      0.001031476901    -0.0001335977237
                  15      0.003820090646     -0.001464829175      0.003527782977    -4.599238034e-05
                  16      0.006981338592      -0.00165578518      0.006782111617    -2.063934979e-05

***** Stress Data ******
          Element No         Integral No           Stress XX           Stress YY           Stress ZZ           Stress XY           Stress XZ           Stress YZ               Mises            YieldFlg
                   1                   1          54.0640621        -29.66511663        -24.39894547         52.66458937        -3.596861791         2.633085579         122.3832682               False
                   1                   2         49.26824638        -34.46093235        -14.80731403        -31.06458937        -3.596861791         9.826809161         94.73539824               False
                   1                   3        -49.26824638         34.46093235         14.80731403        -31.06458937         3.596861791         9.826809161         94.73539824               False
                   1                   4         -54.0640621         29.66511663         24.39894547         52.66458937         3.596861791         2.633085579         122.3832682               False
                   1                   5          54.0640621        -29.66511663        -24.39894547         52.66458937         3.596861791        -2.633085579         122.3832682               False
                   1                   6         49.26824638        -34.46093235        -14.80731403        -31.06458937         3.596861791        -9.826809161         94.73539824               False
                   1                   7        -49.26824638         34.46093235         14.80731403        -31.06458937        -3.596861791        -9.826809161         94.73539824               False
                   1                   8         -54.0640621         29.66511663         24.39894547         52.66458937        -3.596861791        -2.633085579         122.3832682               False
                   2                   1         28.10251697        -24.78453424        -3.317982728          37.2435256         2.358605397         10.73327575         81.52355298               False
                   2                   2         31.24732416        -21.63972704        -9.607597122         -15.6435256         2.358605397          6.01606496          56.2574112               False
                   2                   3        -31.24732416         21.63972704         9.607597122         -15.6435256        -2.358605397          6.01606496          56.2574112               False
                   2                   4        -28.10251697         24.78453424         3.317982728          37.2435256        -2.358605397         10.73327575         81.52355298               False
                   2                   5         28.10251697        -24.78453424        -3.317982728          37.2435256        -2.358605397        -10.73327575         81.52355298               False
                   2                   6         31.24732416        -21.63972704        -9.607597122         -15.6435256        -2.358605397         -6.01606496          56.2574112               False
                   2                   7        -31.24732416         21.63972704         9.607597122         -15.6435256         2.358605397         -6.01606496          56.2574112               False
                   2                   8        -28.10251697         24.78453424         3.317982728          37.2435256         2.358605397        -10.73327575         81.52355298               False
                   3                   1         9.346407739        -8.462965438       -0.8834423014         19.70468659        0.6825815918         3.789761568          38.0650107               False
                   3                   2         10.25651653        -7.552856649        -2.703659879         1.895313412        0.6825815918         2.424598385         16.85638606               False
                   3                   3        -10.25651653         7.552856649         2.703659879         1.895313412       -0.6825815918         2.424598385         16.85638606               False
                   3                   4        -9.346407739         8.462965438        0.8834423014         19.70468659       -0.6825815918         3.789761568          38.0650107               False
                   3                   5         9.346407739        -8.462965438       -0.8834423014         19.70468659       -0.6825815918        -3.789761568          38.0650107               False
                   3                   6         10.25651653        -7.552856649        -2.703659879         1.895313412       -0.6825815918        -2.424598385         16.85638606               False
                   3                   7        -10.25651653         7.552856649         2.703659879         1.895313412        0.6825815918        -2.424598385         16.85638606               False
                   3                   8        -9.346407739         8.462965438        0.8834423014         19.70468659        0.6825815918        -3.789761568          38.0650107               False

***** Strain Data ******
          Element No         Integral No           Strain XX           Strain YY           Strain ZZ           Strain XY           Strain XZ           Strain YZ
                   1                   1     0.0003346822892    -0.0001836411982     -0.000151041091     0.0006520377731    -4.453257456e-05     3.260010717e-05
                   1                   2     0.0003049939062    -0.0002133295812    -9.166432494e-05    -0.0003846092017    -4.453257456e-05     0.0001216652563
                   1                   3    -0.0003049939062     0.0002133295812     9.166432494e-05    -0.0003846092017     4.453257456e-05     0.0001216652563
                   1                   4    -0.0003346822892     0.0001836411982      0.000151041091     0.0006520377731     4.453257456e-05     3.260010717e-05
                   1                   5     0.0003346822892    -0.0001836411982     -0.000151041091     0.0006520377731     4.453257456e-05    -3.260010717e-05
                   1                   6     0.0003049939062    -0.0002133295812    -9.166432494e-05    -0.0003846092017     4.453257456e-05    -0.0001216652563
                   1                   7    -0.0003049939062     0.0002133295812     9.166432494e-05    -0.0003846092017    -4.453257456e-05    -0.0001216652563
                   1                   8    -0.0003346822892     0.0001836411982      0.000151041091     0.0006520377731    -4.453257456e-05    -3.260010717e-05
                   2                   1     0.0001739679622    -0.0001534280691    -2.053989308e-05      0.000461110317     2.920178111e-05      0.000132888176
                   2                   2     0.0001934358162     -0.000133960215    -5.947560123e-05    -0.0001936817455     2.920178111e-05     7.448461378e-05
                   2                   3    -0.0001934358162      0.000133960215     5.947560123e-05    -0.0001936817455    -2.920178111e-05     7.448461378e-05
                   2                   4    -0.0001739679622     0.0001534280691     2.053989308e-05      0.000461110317    -2.920178111e-05      0.000132888176
                   2                   5     0.0001739679622    -0.0001534280691    -2.053989308e-05      0.000461110317    -2.920178111e-05     -0.000132888176
                   2                   6     0.0001934358162     -0.000133960215    -5.947560123e-05    -0.0001936817455    -2.920178111e-05    -7.448461378e-05
                   2                   7    -0.0001934358162      0.000133960215     5.947560123e-05    -0.0001936817455     2.920178111e-05    -7.448461378e-05
                   2                   8    -0.0001739679622     0.0001534280691     2.053989308e-05      0.000461110317     2.920178111e-05     -0.000132888176
                   3                   1     5.785871457e-05    -5.238978604e-05    -5.468928532e-06     0.0002439627863     8.451010184e-06     4.692085751e-05
                   3                   2     6.349272136e-05    -4.675577925e-05    -1.673694211e-05      2.34657851e-05     8.451010184e-06     3.001883714e-05
                   3                   3    -6.349272136e-05     4.675577925e-05     1.673694211e-05      2.34657851e-05    -8.451010184e-06     3.001883714e-05
                   3                   4    -5.785871457e-05     5.238978604e-05     5.468928532e-06     0.0002439627863    -8.451010184e-06     4.692085751e-05
                   3                   5     5.785871457e-05    -5.238978604e-05    -5.468928532e-06     0.0002439627863    -8.451010184e-06    -4.692085751e-05
                   3                   6     6.349272136e-05    -4.675577925e-05    -1.673694211e-05      2.34657851e-05    -8.451010184e-06    -3.001883714e-05
                   3                   7    -6.349272136e-05     4.675577925e-05     1.673694211e-05      2.34657851e-05     8.451010184e-06    -3.001883714e-05
                   3                   8    -5.785871457e-05     5.238978604e-05     5.468928532e-06     0.0002439627863     8.451010184e-06    -4.692085751e-05

***** Plastic Strain Data ******
          Element No         Integral No          PStrain XX          PStrain YY          PStrain ZZ          PStrain XY          PStrain XZ          PStrain YZ
                   1                   1                   0                   0                   0                   0                   0                   0
                   1                   2                   0                   0                   0                   0                   0                   0
                   1                   3                   0                   0                   0                   0                   0                   0
                   1                   4                   0                   0                   0                   0                   0                   0
                   1                   5                   0                   0                   0                   0                   0                   0
                   1                   6                   0                   0                   0                   0                   0                   0
                   1                   7                   0                   0                   0                   0                   0                   0
                   1                   8                   0                   0                   0                   0                   0                   0
                   2                   1                   0                   0                   0                   0                   0                   0
                   2                   2                   0                   0                   0                   0                   0                   0
                   2                   3                   0                   0                   0                   0                   0                   0
                   2                   4                   0                   0                   0                   0                   0                   0
                   2                   5                   0                   0                   0                   0                   0                   0
                   2                   6                   0                   0                   0                   0                   0                   0
                   2                   7                   0                   0                   0                   0                   0                   0
                   2                   8                   0                   0                   0                   0                   0                   0
                   3                   1                   0                   0                   0                   0                   0                   0
                   3                   2                   0                   0                   0                   0                   0                   0
                   3                   3                   0                   0                   0                   0                   0                   0
                   3                   4                   0                   0                   0                   0                   0                   0
                   3                   5                   0                   0                   0                   0                   0                   0
                   3                   6                   0                   0                   0                   0                   0                   0
                   3                   7                   0                   0                   0                   0                   0                   0
                   3                   8                   0                   0                   0                   0                   0                   0

***** Reaction Force Data ******
              NodeNo           Magnitude             X Force             Y Force             Z Force----------------------------------------------------------------------------------------------------
                   1         16.68266383               -16.2                -2.7         2.929380887
                   2     3.714786996e-14     3.375077995e-14     1.465494393e-14    -5.107025913e-15
                   3     4.126446733e-14     3.019806627e-14    -7.549516567e-15     -2.70894418e-14
                   4     6.158948402e-14     4.238276397e-14    -4.174438573e-14     1.594904764e-14
                   5         16.68266383               -16.2                -2.7        -2.929380887
                   6     5.288811642e-14     2.309263891e-14     4.574118861e-14     1.310063169e-14
                   7     5.930887878e-14    -1.509903313e-14    -5.728750807e-14    -2.775557562e-15
                   8     5.118038584e-14      4.52970994e-14    -2.353672812e-14     3.691491557e-15
                   9         16.68266383                16.2                -2.7        -2.929380887
                  10     2.596331969e-14    -5.329070518e-15     2.486899575e-14    -5.218048216e-15
                  11     6.589884455e-14     -6.30606678e-14     5.329070518e-15    -1.837419106e-14
                  12     8.948636584e-15    -4.871103521e-15    -3.552713679e-15      6.61276589e-15
                  13         16.68266383                16.2                -2.7         2.929380887
                  14     3.556943886e-14    -3.019806627e-14      1.82076576e-14    -4.662936703e-15
                  15     7.019735713e-14    -6.661338148e-14    -2.131628207e-14    -5.995204333e-15
                  16     6.811403392e-14     6.278311204e-14     1.509903313e-14     2.167536983e-14

*Increment 28

***** Displacement Data ******
              NodeNo           Magnitude      X Displacement      Y Displacement      Z Displacement
----------------------------------------------------------------------------------------------------
                   1                   0                   0                   0                   0
                   2      0.001424849136     0.0009310130821      0.001069679749    -0.0001385457875
                   3      0.003961575484      0.001519082108      0.003658441605    -4.769580183e-05
                   4      0.007239906688      0.001717110557      0.007033300936    -2.140377015e-05
                   5                   0                   0                   0                   0
                   6      0.001424849136     0.0009310130821      0.001069679749     0.0001385457875
                   7      0.003961575484      0.001519082108      0.003658441605     4.769580183e-05
                   8      0.007239906688      0.001717110557      0.007033300936     2.140377015e-05
                   9                   0                   0                   0                   0
                  10      0.001424849136    -0.0009310130821      0.001069679749     0.0001385457875
                  11      0.003961575484     -0.001519082108      0.003658441605     4.769580183e-05
                  12      0.007239906688     -0.001717110557      0.007033300936     2.140377015e-05
                  13                   0                   0                   0                   0
                  14      0.001424849136    -0.0009310130821      0.001069679749    -0.0001385457875
                  15      0.003961575484     -0.001519082108      0.003658441605    -4.769580183e-05
                  16      0.007239906688     -0.001717110557      0.007033300936    -2.140377015e-05

***** Stress Data ******
          Element No         Integral No           Stress XX           Stress YY           Stress ZZ           Stress XY           Stress XZ           Stress YZ               Mises            YieldFlg
                   1                   1         56.06643477        -30.76382465        -25.30261012         54.61512971        -3.730078895         2.730607267         126.9159818               False
                   1                   2         51.09299625        -35.73726318        -15.35573307        -32.21512971        -3.730078895         10.19076506         98.24411669               False
                   1                   3        -51.09299625         35.73726318         15.35573307        -32.21512971         3.730078895         10.19076506         98.24411669               False
                   1                   4        -56.06643477         30.76382465         25.30261012         54.61512971         3.730078895         2.730607267         126.9159818               False
                   1                   5         56.06643477        -30.76382465        -25.30261012         54.61512971         3.730078895        -2.730607267         126.9159818               False
                   1                   6         51.09299625        -35.73726318        -15.35573307        -32.21512971         3.730078895        -10.19076506         98.24411669               False
                   1                   7        -51.09299625         35.73726318         15.35573307        -32.21512971        -3.730078895        -10.19076506         98.24411669               False
                   1                   8        -56.06643477         30.76382465         25.30261012         54.61512971        -3.730078895        -2.730607267         126.9159818               False
                   2                   1         29.14335093        -25.70247995        -3.440870977         38.62291544         2.445961153         11.13080449         84.54294383               False
                   2                   2         32.40463246        -22.44119841        -9.963434052        -16.22291544         2.445961153          6.23888218         58.34101902               False
                   2                   3        -32.40463246         22.44119841         9.963434052        -16.22291544        -2.445961153          6.23888218         58.34101902               False
                   2                   4        -29.14335093         25.70247995         3.440870977         38.62291544        -2.445961153         11.13080449         84.54294383               False
                   2                   5         29.14335093        -25.70247995        -3.440870977         38.62291544        -2.445961153        -11.13080449         84.54294383               False
                   2                   6         32.40463246        -22.44119841        -9.963434052        -16.22291544        -2.445961153         -6.23888218         58.34101902               False
                   2                   7        -32.40463246         22.44119841         9.963434052        -16.22291544         2.445961153         -6.23888218         58.34101902               False
                   2                   8        -29.14335093         25.70247995         3.440870977         38.62291544         2.445961153        -11.13080449         84.54294383               False
                   3                   1         9.692570989        -8.776408602       -0.9161623866          20.4344898        0.7078623915         3.930123108         39.47482591               False
                   3                   2         10.63638751         -7.83259208        -2.803795431         1.965510205        0.7078623915         2.514398325         17.48069666               False
                   3                   3        -10.63638751          7.83259208         2.803795431         1.965510205       -0.7078623915         2.514398325         17.48069666               False
                   3                   4        -9.692570989         8.776408602        0.9161623866          20.4344898       -0.7078623915         3.930123108         39.47482591               False
                   3                   5         9.692570989        -8.776408602       -0.9161623866          20.4344898       -0.7078623915        -3.930123108         39.47482591               False
                   3                   6         10.63638751         -7.83259208        -2.803795431         1.965510205       -0.7078623915        -2.514398325         17.48069666               False
                   3                   7        -10.63638751          7.83259208         2.803795431         1.965510205        0.7078623915        -2.514398325         17.48069666               False
                   3                   8        -9.692570989         8.776408602        0.9161623866          20.4344898        0.7078623915        -3.930123108         39.47482591               False

***** Strain Data ******
          Element No         Integral No           Strain XX           Strain YY           Strain ZZ           Strain XY           Strain XZ           Strain YZ
                   1                   1     0.0003470779295     -0.000190442724    -0.0001566352055     0.0006761873203    -4.618192917e-05     3.380751855e-05
                   1                   2     0.0003162899768    -0.0002212306768    -9.505929994e-05    -0.0003988539869    -4.618192917e-05     0.0001261713769
                   1                   3    -0.0003162899768     0.0002212306768     9.505929994e-05    -0.0003988539869     4.618192917e-05     0.0001261713769
                   1                   4    -0.0003470779295      0.000190442724     0.0001566352055     0.0006761873203     4.618192917e-05     3.380751855e-05
                   1                   5     0.0003470779295     -0.000190442724    -0.0001566352055     0.0006761873203     4.618192917e-05    -3.380751855e-05
                   1                   6     0.0003162899768    -0.0002212306768    -9.505929994e-05    -0.0003988539869     4.618192917e-05    -0.0001261713769
                   1                   7    -0.0003162899768     0.0002212306768     9.505929994e-05    -0.0003988539869    -4.618192917e-05    -0.0001261713769
                   1                   8    -0.0003470779295      0.000190442724     0.0001566352055     0.0006761873203    -4.618192917e-05    -3.380751855e-05
                   2                   1       0.00018041122    -0.0001591105902    -2.130062986e-05     0.0004781884769     3.028332856e-05     0.0001378099603
                   2                   2     0.0002006001057    -0.0001389217045    -6.167840127e-05    -0.0002008551435     3.028332856e-05     7.724330318e-05
                   2                   3    -0.0002006001057     0.0001389217045     6.167840127e-05    -0.0002008551435    -3.028332856e-05     7.724330318e-05
                   2                   4      -0.00018041122     0.0001591105902     2.130062986e-05     0.0004781884769    -3.028332856e-05     0.0001378099603
                   2                   5       0.00018041122    -0.0001591105902    -2.130062986e-05     0.0004781884769    -3.028332856e-05    -0.0001378099603
                   2                   6     0.0002006001057    -0.0001389217045    -6.167840127e-05    -0.0002008551435    -3.028332856e-05    -7.724330318e-05
                   2                   7    -0.0002006001057     0.0001389217045     6.167840127e-05    -0.0002008551435     3.028332856e-05    -7.724330318e-05
                   2                   8      -0.00018041122     0.0001591105902     2.130062986e-05     0.0004781884769     3.028332856e-05    -0.0001378099603
                   3                   1     6.000162993e-05    -5.433014849e-05    -5.671481441e-06     0.0002529984451     8.764010561e-06     4.865866705e-05
                   3                   2     6.584430364e-05    -4.848747478e-05    -1.735682886e-05     2.433488825e-05     8.764010561e-06     3.113064592e-05
                   3                   3    -6.584430364e-05     4.848747478e-05     1.735682886e-05     2.433488825e-05    -8.764010561e-06     3.113064592e-05
                   3                   4    -6.000162993e-05     5.433014849e-05     5.671481441e-06     0.0002529984451    -8.764010561e-06     4.865866705e-05
                   3                   5     6.000162993e-05    -5.433014849e-05    -5.671481441e-06     0.0002529984451    -8.764010561e-06    -4.865866705e-05
                   3                   6     6.584430364e-05    -4.848747478e-05    -1.735682886e-05     2.433488825e-05    -8.764010561e-06    -3.113064592e-05
                   3                   7    -6.584430364e-05     4.848747478e-05     1.735682886e-05     2.433488825e-05     8.764010561e-06    -3.113064592e-05
                   3                   8    -6.000162993e-05     5.433014849e-05     5.671481441e-06     0.0002529984451     8.764010561e-06    -4.865866705e-05

***** Plastic Strain Data ******
          Element No         Integral No          PStrain XX          PStrain YY          PStrain ZZ          PStrain XY          PStrain XZ          PStrain YZ
                   1                   1                   0                   0                   0                   0                   0                   0
                   1                   2                   0                   0                   0                   0                   0                   0
                   1                   3                   0                   0                   0                   0                   0                   0
                   1                   4                   0                   0                   0                   0                   0                   0
                   1                   5                   0                   0                   0                   0                   0                   0
                   1                   6                   0                   0                   0                   0                   0                   0
                   1                   7                   0                   0                   0                   0                   0                   0
                   1                   8                   0                   0                   0                   0                   0                   0
                   2                   1                   0                   0                   0                   0                   0                   0
                   2                   2                   0                   0                   0                   0                   0                   0
                   2                   3                   0                   0                   0                   0                   0                   0
                   2                   4                   0                   0                   0                   0                   0                   0
                   2                   5                   0                   0                   0                   0                   0                   0
                   2                   6                   0                   0                   0                   0                   0                   0
                   2                   7                   0                   0                   0                   0                   0                   0
                   2                   8                   0                   0                   0                   0                   0                   0
                   3                   1                   0                   0                   0                   0                   0                   0
                   3                   2                   0                   0                   0                   0                   0                   0
                   3                   3                   0                   0                   0                   0                   0                   0
                   3                   4                   0                   0                   0                   0                   0                   0
                   3                   5                   0                   0                   0                   0                   0                   0
                   3                   6                   0                   0                   0                   0                   0                   0
                   3                   7                   0                   0                   0                   0                   0                   0
                   3                   8                   0                   0                   0                   0                   0                   0

***** Reaction Force Data ******
              NodeNo           Magnitude             X Force             Y Force             Z Force----------------------------------------------------------------------------------------------------
                   1         17.30054027               -16.8                -2.8         3.037876476
                   2      6.46435877e-14     3.907985047e-14     5.018208071e-14     1.154631946e-14
                   3     7.260572107e-14     5.773159728e-14     4.218847494e-14    -1.260103133e-14
                   4     5.806065571e-14     3.899658374e-14    -3.774758284e-14     2.062586213e-14
                   5         17.30054027               -16.8                -2.8        -3.037876476
                   6      8.31266469e-14     3.019806627e-14     7.727152251e-14     5.218048216e-15
                   7     3.751802377e-14    -1.776356839e-14    -1.731947918e-14    -2.814415367e-14
                   8     5.652169298e-14     5.517808432e-14     8.881784197e-15    -8.437694987e-15
                   9         17.30054027                16.8                -2.8        -3.037876476
                  10     1.419393108e-14    -8.881784197e-15     7.993605777e-15      7.66053887e-15
                  11     8.564420813e-14    -7.727152251e-14    -3.641531521e-14     6.161737787e-15
                  12     5.267126558e-14     -2.85743651e-14    -4.130029652e-14     1.587618925e-14
                  13         17.30054027                16.8                -2.8         3.037876476
                  14      3.59275101e-14    -2.842170943e-14    -4.884981308e-15    -2.142730438e-14
                  15     1.060817955e-13    -8.348877145e-14    -5.817568649e-14    -2.997602166e-14
                  16     6.006115134e-14     5.129230374e-14    -2.042810365e-14      2.36460157e-14

*Increment 29

***** Displacement Data ******
              NodeNo           Magnitude      X Displacement      Y Displacement      Z Displacement
----------------------------------------------------------------------------------------------------
                   1                   0                   0                   0                   0
                   2      0.001475736605     0.0009642635494      0.001107882597    -0.0001434938514
                   3      0.004103060323       0.00157333504      0.003789100234    -4.939922333e-05
                   4      0.007498474784      0.001778435934      0.007284490256    -2.216819051e-05
                   5                   0                   0                   0                   0
                   6      0.001475736605     0.0009642635494      0.001107882597     0.0001434938514
                   7      0.004103060323       0.00157333504      0.003789100234     4.939922333e-05
                   8      0.007498474784      0.001778435934      0.007284490256     2.216819051e-05
                   9                   0                   0                   0                   0
                  10      0.001475736605    -0.0009642635494      0.001107882597     0.0001434938514
                  11      0.004103060323      -0.00157333504      0.003789100234     4.939922333e-05
                  12      0.007498474784     -0.001778435934      0.007284490256     2.216819051e-05
                  13                   0                   0                   0                   0
                  14      0.001475736605    -0.0009642635494      0.001107882597    -0.0001434938514
                  15      0.004103060323      -0.00157333504      0.003789100234    -4.939922333e-05
                  16      0.007498474784     -0.001778435934      0.007284490256    -2.216819051e-05

***** Stress Data ******
          Element No         Integral No           Stress XX           Stress YY           Stress ZZ           Stress XY           Stress XZ           Stress YZ               Mises            YieldFlg
                   1                   1         58.06880744        -31.86253268        -26.20627477         56.56567006        -3.863295998         2.828128955         131.4486954               False
                   1                   2         52.91774611        -37.01359401        -15.90415211        -33.36567006        -3.863295998         10.55472095         101.7528351               False
                   1                   3        -52.91774611         37.01359401         15.90415211        -33.36567006         3.863295998         10.55472095         101.7528351               False
                   1                   4        -58.06880744         31.86253268         26.20627477         56.56567006         3.863295998         2.828128955         131.4486954               False
                   1                   5         58.06880744        -31.86253268        -26.20627477         56.56567006         3.863295998        -2.828128955         131.4486954               False
                   1                   6         52.91774611        -37.01359401        -15.90415211        -33.36567006         3.863295998        -10.55472095         101.7528351               False
                   1                   7        -52.91774611         37.01359401         15.90415211        -33.36567006        -3.863295998        -10.55472095         101.7528351               False
                   1                   8        -58.06880744         31.86253268         26.20627477         56.56567006        -3.863295998        -2.828128955         131.4486954               False
                   2                   1         30.18418489        -26.62042566        -3.563759227         40.00230528         2.533316908         11.52833322         87.56233469               False
                   2                   2         33.56194077        -23.24266978        -10.31927098        -16.80230528         2.533316908         6.461699401         60.42462685               False
                   2                   3        -33.56194077         23.24266978         10.31927098        -16.80230528        -2.533316908         6.461699401         60.42462685               False
                   2                   4        -30.18418489         26.62042566         3.563759227         40.00230528        -2.533316908         11.52833322         87.56233469               False
                   2                   5         30.18418489        -26.62042566        -3.563759227         40.00230528        -2.533316908        -11.52833322         87.56233469               False
                   2                   6         33.56194077        -23.24266978        -10.31927098        -16.80230528        -2.533316908        -6.461699401         60.42462685               False
                   2                   7        -33.56194077         23.24266978         10.31927098        -16.80230528         2.533316908        -6.461699401         60.42462685               False
                   2                   8        -30.18418489         26.62042566         3.563759227         40.00230528         2.533316908        -11.52833322         87.56233469               False
                   3                   1         10.03873424        -9.089851766       -0.9488824719           21.164293        0.7331431912         4.070484647         40.88464112               False
                   3                   2         11.01625849        -8.112327511        -2.903930982         2.035706998        0.7331431912         2.604198265         18.10500725               False
                   3                   3        -11.01625849         8.112327511         2.903930982         2.035706998       -0.7331431912         2.604198265         18.10500725               False
                   3                   4        -10.03873424         9.089851766        0.9488824719           21.164293       -0.7331431912         4.070484647         40.88464112               False
                   3                   5         10.03873424        -9.089851766       -0.9488824719           21.164293       -0.7331431912        -4.070484647         40.88464112               False
                   3                   6         11.01625849        -8.112327511        -2.903930982         2.035706998       -0.7331431912        -2.604198265         18.10500725               False
                   3                   7        -11.01625849         8.112327511         2.903930982         2.035706998        0.7331431912        -2.604198265         18.10500725               False
                   3                   8        -10.03873424         9.089851766        0.9488824719           21.164293        0.7331431912        -4.070484647         40.88464112               False

***** Strain Data ******
          Element No         Integral No           Strain XX           Strain YY           Strain ZZ           Strain XY           Strain XZ           Strain YZ
                   1                   1     0.0003594735699    -0.0001972442499      -0.00016222932     0.0007003368674    -4.783128378e-05     3.501492992e-05
                   1                   2     0.0003275860474    -0.0002291317724    -9.845427494e-05    -0.0004130987722    -4.783128378e-05     0.0001306774975
                   1                   3    -0.0003275860474     0.0002291317724     9.845427494e-05    -0.0004130987722     4.783128378e-05     0.0001306774975
                   1                   4    -0.0003594735699     0.0001972442499       0.00016222932     0.0007003368674     4.783128378e-05     3.501492992e-05
                   1                   5     0.0003594735699    -0.0001972442499      -0.00016222932     0.0007003368674     4.783128378e-05    -3.501492992e-05
                   1                   6     0.0003275860474    -0.0002291317724    -9.845427494e-05    -0.0004130987722     4.783128378e-05    -0.0001306774975
                   1                   7    -0.0003275860474     0.0002291317724     9.845427494e-05    -0.0004130987722    -4.783128378e-05    -0.0001306774975
                   1                   8    -0.0003594735699     0.0001972442499       0.00016222932     0.0007003368674    -4.783128378e-05    -3.501492992e-05
                   2                   1     0.0001868544779    -0.0001647931112    -2.206136664e-05     0.0004952666367     3.136487601e-05     0.0001427317446
                   2                   2     0.0002077643952    -0.0001438831939    -6.388120132e-05    -0.0002080285415     3.136487601e-05     8.000199258e-05
                   2                   3    -0.0002077643952     0.0001438831939     6.388120132e-05    -0.0002080285415    -3.136487601e-05     8.000199258e-05
                   2                   4    -0.0001868544779     0.0001647931112     2.206136664e-05     0.0004952666367    -3.136487601e-05     0.0001427317446
                   2                   5     0.0001868544779    -0.0001647931112    -2.206136664e-05     0.0004952666367    -3.136487601e-05    -0.0001427317446
                   2                   6     0.0002077643952    -0.0001438831939    -6.388120132e-05    -0.0002080285415    -3.136487601e-05    -8.000199258e-05
                   2                   7    -0.0002077643952     0.0001438831939     6.388120132e-05    -0.0002080285415     3.136487601e-05    -8.000199258e-05
                   2                   8    -0.0001868544779     0.0001647931112     2.206136664e-05     0.0004952666367     3.136487601e-05    -0.0001427317446
                   3                   1     6.214454528e-05    -5.627051093e-05     -5.87403435e-06     0.0002620341038     9.077010938e-06     5.039647658e-05
                   3                   2     6.819588591e-05    -5.021917031e-05     -1.79767156e-05      2.52039914e-05     9.077010938e-06     3.224245471e-05
                   3                   3    -6.819588591e-05     5.021917031e-05      1.79767156e-05      2.52039914e-05    -9.077010938e-06     3.224245471e-05
                   3                   4    -6.214454528e-05     5.627051093e-05      5.87403435e-06     0.0002620341038    -9.077010938e-06     5.039647658e-05
                   3                   5     6.214454528e-05    -5.627051093e-05     -5.87403435e-06     0.0002620341038    -9.077010938e-06    -5.039647658e-05
                   3                   6     6.819588591e-05    -5.021917031e-05     -1.79767156e-05      2.52039914e-05    -9.077010938e-06    -3.224245471e-05
                   3                   7    -6.819588591e-05     5.021917031e-05      1.79767156e-05      2.52039914e-05     9.077010938e-06    -3.224245471e-05
                   3                   8    -6.214454528e-05     5.627051093e-05      5.87403435e-06     0.0002620341038     9.077010938e-06    -5.039647658e-05

***** Plastic Strain Data ******
          Element No         Integral No          PStrain XX          PStrain YY          PStrain ZZ          PStrain XY          PStrain XZ          PStrain YZ
                   1                   1                   0                   0                   0                   0                   0                   0
                   1                   2                   0                   0                   0                   0                   0                   0
                   1                   3                   0                   0                   0                   0                   0                   0
                   1                   4                   0                   0                   0                   0                   0                   0
                   1                   5                   0                   0                   0                   0                   0                   0
                   1                   6                   0                   0                   0                   0                   0                   0
                   1                   7                   0                   0                   0                   0                   0                   0
                   1                   8                   0                   0                   0                   0                   0                   0
                   2                   1                   0                   0                   0                   0                   0                   0
                   2                   2                   0                   0                   0                   0                   0                   0
                   2                   3                   0                   0                   0                   0                   0                   0
                   2                   4                   0                   0                   0                   0                   0                   0
                   2                   5                   0                   0                   0                   0                   0                   0
                   2                   6                   0                   0                   0                   0                   0                   0
                   2                   7                   0                   0                   0                   0                   0                   0
                   2                   8                   0                   0                   0                   0                   0                   0
                   3                   1                   0                   0                   0                   0                   0                   0
                   3                   2                   0                   0                   0                   0                   0                   0
                   3                   3                   0                   0                   0                   0                   0                   0
                   3                   4                   0                   0                   0                   0                   0                   0
                   3                   5                   0                   0                   0                   0                   0                   0
                   3                   6                   0                   0                   0                   0                   0                   0
                   3                   7                   0                   0                   0                   0                   0                   0
                   3                   8                   0                   0                   0                   0                   0                   0

***** Reaction Force Data ******
              NodeNo           Magnitude             X Force             Y Force             Z Force----------------------------------------------------------------------------------------------------
                   1          17.9184167               -17.4                -2.9         3.146372064
                   2     5.632760035e-14     4.440892099e-14     3.463895837e-14     8.881784197e-16
                   3     6.279861987e-14     5.595524044e-14     1.110223025e-14    -2.625677453e-14
                   4     6.790506692e-14     4.657385588e-14    -4.929390229e-14     3.476385846e-15
                   5          17.9184167               -17.4                -2.9        -3.146372064
                   6     8.072291058e-14     3.197442311e-14     7.283063042e-14     1.376676551e-14
                   7     4.089013346e-14    -5.329070518e-15    -3.508304758e-14    -2.031708135e-14
                   8      4.35038877e-14      3.58602037e-14     1.065814104e-14    -2.220446049e-14
                   9          17.9184167                17.4                -2.9        -3.146372064
                  10     3.096308316e-14    -1.776356839e-14     2.531308496e-14     1.554312234e-15
                  11     7.408908882e-14    -6.483702464e-14    -3.330669074e-14    -1.326716514e-14
                  12     5.841113831e-14    -2.561839629e-14    -4.396483178e-14     2.868191795e-14
                  13          17.9184167                17.4                -2.9         3.146372064
                  14      5.19280636e-14     -4.97379915e-14     1.199040867e-14    -8.881784197e-15
                  15     9.960750272e-14    -8.082423619e-14    -5.773159728e-14    -7.494005416e-15
                  16     8.159728966e-14     6.883382753e-14     1.687538997e-14     4.043813895e-14

*Increment 30

***** Displacement Data ******
              NodeNo           Magnitude      X Displacement      Y Displacement      Z Displacement
----------------------------------------------------------------------------------------------------
                   1                   0                   0                   0                   0
                   2      0.001526624074     0.0009975140166      0.001146085445    -0.0001484419152
                   3      0.004244545162      0.001627587973      0.003919758863    -5.110264482e-05
                   4       0.00775704288      0.001839761311      0.007535679575    -2.293261088e-05
                   5                   0                   0                   0                   0
                   6      0.001526624074     0.0009975140166      0.001146085445     0.0001484419152
                   7      0.004244545162      0.001627587973      0.003919758863     5.110264482e-05
                   8       0.00775704288      0.001839761311      0.007535679575     2.293261088e-05
                   9                   0                   0                   0                   0
                  10      0.001526624074    -0.0009975140166      0.001146085445     0.0001484419152
                  11      0.004244545162     -0.001627587973      0.003919758863     5.110264482e-05
                  12       0.00775704288     -0.001839761311      0.007535679575     2.293261088e-05
                  13                   0                   0                   0                   0
                  14      0.001526624074    -0.0009975140166      0.001146085445    -0.0001484419152
                  15      0.004244545162     -0.001627587973      0.003919758863    -5.110264482e-05
                  16       0.00775704288     -0.001839761311      0.007535679575    -2.293261088e-05

***** Stress Data ******
          Element No         Integral No           Stress XX           Stress YY           Stress ZZ           Stress XY           Stress XZ           Stress YZ               Mises            YieldFlg
                   1                   1         60.07118011         -32.9612407        -27.10993941         58.51621041        -3.996513101         2.925650643         135.9814091               False
                   1                   2         54.74249598        -38.28992484        -16.45257114        -34.51621041        -3.996513101         10.91867685         105.2615536               False
                   1                   3        -54.74249598         38.28992484         16.45257114        -34.51621041         3.996513101         10.91867685         105.2615536               False
                   1                   4        -60.07118011          32.9612407         27.10993941         58.51621041         3.996513101         2.925650643         135.9814091               False
                   1                   5         60.07118011         -32.9612407        -27.10993941         58.51621041         3.996513101        -2.925650643         135.9814091               False
                   1                   6         54.74249598        -38.28992484        -16.45257114        -34.51621041         3.996513101        -10.91867685         105.2615536               False
                   1                   7        -54.74249598         38.28992484         16.45257114        -34.51621041        -3.996513101        -10.91867685         105.2615536               False
                   1                   8        -60.07118011          32.9612407         27.10993941         58.51621041        -3.996513101        -2.925650643         135.9814091               False
                   2                   1         31.22501885        -27.53837137        -3.686647476         41.38169511         2.620672664         11.92586195         90.58172554               False
                   2                   2         34.71924907        -24.04414116        -10.67510791        -17.38169511         2.620672664         6.684516622         62.50823467               False
                   2                   3        -34.71924907         24.04414116         10.67510791        -17.38169511        -2.620672664         6.684516622         62.50823467               False
                   2                   4        -31.22501885         27.53837137         3.686647476         41.38169511        -2.620672664         11.92586195         90.58172554               False
                   2                   5         31.22501885        -27.53837137        -3.686647476         41.38169511        -2.620672664        -11.92586195         90.58172554               False
                   2                   6         34.71924907        -24.04414116        -10.67510791        -17.38169511        -2.620672664        -6.684516622         62.50823467               False
                   2                   7        -34.71924907         24.04414116         10.67510791        -17.38169511         2.620672664        -6.684516622         62.50823467               False
                   2                   8        -31.22501885         27.53837137         3.686647476         41.38169511         2.620672664        -11.92586195         90.58172554               False
                   3                   1         10.38489749        -9.403294931       -0.9816025571         21.89409621        0.7584239909         4.210846187         42.29445633               False
                   3                   2         11.39612948        -8.392062943        -3.004066533         2.105903791        0.7584239909         2.693998205         18.72931785               False
                   3                   3        -11.39612948         8.392062943         3.004066533         2.105903791       -0.7584239909         2.693998205         18.72931785               False
                   3                   4        -10.38489749         9.403294931        0.9816025571         21.89409621       -0.7584239909         4.210846187         42.29445633               False
                   3                   5         10.38489749        -9.403294931       -0.9816025571         21.89409621       -0.7584239909        -4.210846187         42.29445633               False
                   3                   6         11.39612948        -8.392062943        -3.004066533         2.105903791       -0.7584239909        -2.693998205         18.72931785               False
                   3                   7        -11.39612948         8.392062943         3.004066533         2.105903791        0.7584239909        -2.693998205         18.72931785               False
                   3                   8        -10.38489749         9.403294931        0.9816025571         21.89409621        0.7584239909        -4.210846187         42.29445633               False

***** Strain Data ******
          Element No         Integral No           Strain XX           Strain YY           Strain ZZ           Strain XY           Strain XZ           Strain YZ
                   1                   1     0.0003718692102    -0.0002040457758    -0.0001678234345     0.0007244864146     -4.94806384e-05      3.62223413e-05
                   1                   2      0.000338882118     -0.000237032868    -0.0001018492499    -0.0004273435574     -4.94806384e-05     0.0001351836181
                   1                   3     -0.000338882118      0.000237032868     0.0001018492499    -0.0004273435574      4.94806384e-05     0.0001351836181
                   1                   4    -0.0003718692102     0.0002040457758     0.0001678234345     0.0007244864146      4.94806384e-05      3.62223413e-05
                   1                   5     0.0003718692102    -0.0002040457758    -0.0001678234345     0.0007244864146      4.94806384e-05     -3.62223413e-05
                   1                   6      0.000338882118     -0.000237032868    -0.0001018492499    -0.0004273435574      4.94806384e-05    -0.0001351836181
                   1                   7     -0.000338882118      0.000237032868     0.0001018492499    -0.0004273435574     -4.94806384e-05    -0.0001351836181
                   1                   8    -0.0003718692102     0.0002040457758     0.0001678234345     0.0007244864146     -4.94806384e-05     -3.62223413e-05
                   2                   1     0.0001932977357    -0.0001704756323    -2.282210342e-05     0.0005123447966     3.244642346e-05     0.0001476535289
                   2                   2     0.0002149286847    -0.0001488446833    -6.608400137e-05    -0.0002152019395     3.244642346e-05     8.276068198e-05
                   2                   3    -0.0002149286847     0.0001488446833     6.608400137e-05    -0.0002152019395    -3.244642346e-05     8.276068198e-05
                   2                   4    -0.0001932977357     0.0001704756323     2.282210342e-05     0.0005123447966    -3.244642346e-05     0.0001476535289
                   2                   5     0.0001932977357    -0.0001704756323    -2.282210342e-05     0.0005123447966    -3.244642346e-05    -0.0001476535289
                   2                   6     0.0002149286847    -0.0001488446833    -6.608400137e-05    -0.0002152019395    -3.244642346e-05    -8.276068198e-05
                   2                   7    -0.0002149286847     0.0001488446833     6.608400137e-05    -0.0002152019395     3.244642346e-05    -8.276068198e-05
                   2                   8    -0.0001932977357     0.0001704756323     2.282210342e-05     0.0005123447966     3.244642346e-05    -0.0001476535289
                   3                   1     6.428746064e-05    -5.821087338e-05    -6.076587258e-06     0.0002710697626     9.390011315e-06     5.213428612e-05
                   3                   2     7.054746818e-05    -5.195086584e-05    -1.859660235e-05     2.607309455e-05     9.390011315e-06     3.335426349e-05
                   3                   3    -7.054746818e-05     5.195086584e-05     1.859660235e-05     2.607309455e-05    -9.390011315e-06     3.335426349e-05
                   3                   4    -6.428746064e-05     5.821087338e-05     6.076587258e-06     0.0002710697626    -9.390011315e-06     5.213428612e-05
                   3                   5     6.428746064e-05    -5.821087338e-05    -6.076587258e-06     0.0002710697626    -9.390011315e-06    -5.213428612e-05
                   3                   6     7.054746818e-05    -5.195086584e-05    -1.859660235e-05     2.607309455e-05    -9.390011315e-06    -3.335426349e-05
                   3                   7    -7.054746818e-05     5.195086584e-05     1.859660235e-05     2.607309455e-05     9.390011315e-06    -3.335426349e-05
                   3                   8    -6.428746064e-05     5.821087338e-05     6.076587258e-06     0.0002710697626     9.390011315e-06    -5.213428612e-05

***** Plastic Strain Data ******
          Element No         Integral No          PStrain XX          PStrain YY          PStrain ZZ          PStrain XY          PStrain XZ          PStrain YZ
                   1                   1                   0                   0                   0                   0                   0                   0
                   1                   2                   0                   0                   0                   0                   0                   0
                   1                   3                   0                   0                   0                   0                   0                   0
                   1                   4                   0                   0                   0                   0                   0                   0
                   1                   5                   0                   0                   0                   0                   0                   0
                   1                   6                   0                   0                   0                   0                   0                   0
                   1                   7                   0                   0                   0                   0                   0                   0
                   1                   8                   0                   0                   0                   0                   0                   0
                   2                   1                   0                   0                   0                   0                   0                   0
                   2                   2                   0                   0                   0                   0                   0                   0
                   2                   3                   0                   0                   0                   0                   0                   0
                   2                   4                   0                   0                   0                   0                   0                   0
                   2                   5                   0                   0                   0                   0                   0                   0
                   2                   6                   0                   0                   0                   0                   0                   0
                   2                   7                   0                   0                   0                   0                   0                   0
                   2                   8                   0                   0                   0                   0                   0                   0
                   3                   1                   0                   0                   0                   0                   0                   0
                   3                   2                   0                   0                   0                   0                   0                   0
                   3                   3                   0                   0                   0                   0                   0                   0
                   3                   4                   0                   0                   0                   0                   0                   0
                   3                   5                   0                   0                   0                   0                   0                   0
                   3                   6                   0                   0                   0                   0                   0                   0
                   3                   7                   0                   0                   0                   0                   0                   0
                   3                   8                   0                   0                   0                   0                   0                   0

***** Reaction Force Data ******
              NodeNo           Magnitude             X Force             Y Force             Z Force----------------------------------------------------------------------------------------------------
                   1         18.53629314                 -18                  -3         3.254867652
                   2     6.697507239e-14     4.440892099e-14     4.751754545e-14     1.598721155e-14
                   3     7.459197213e-14     6.039613254e-14     4.263256415e-14     -9.93649607e-15
                   4     1.002133912e-13     6.303291222e-14    -7.771561172e-14     5.464378949e-15
                   5         18.53629314                 -18                  -3        -3.254867652
                   6     8.715130527e-14     3.552713679e-14     7.860379014e-14     1.243449788e-14
                   7     3.890001107e-14    -2.664535259e-14    -1.465494393e-14    -2.425837309e-14
                   8      6.81506848e-14     6.550315845e-14    -7.993605777e-15    -1.702804564e-14
                   9         18.53629314                  18                  -3        -3.254867652
                  10     1.016809138e-14     7.105427358e-15     7.105427358e-15     1.554312234e-15
                  11     9.616686536e-14    -9.503509091e-14     5.329070518e-15    -1.371125435e-14
                  12     5.663899979e-14    -2.901845431e-14    -4.618527782e-14     1.525862769e-14
                  13         18.53629314                  18                  -3         3.254867652
                  14     2.903270358e-14    -2.131628207e-14    -7.549516567e-15     -1.82076576e-14
                  15     1.291314904e-13    -1.136868377e-13    -5.773159728e-14    -2.042810365e-14
                  16     7.537392948e-14     6.095124405e-14     3.552713679e-15     4.419901944e-14

*Increment 31

***** Displacement Data ******
              NodeNo           Magnitude      X Displacement      Y Displacement      Z Displacement
----------------------------------------------------------------------------------------------------
                   1                   0                   0                   0                   0
                   2      0.001577511543      0.001030764484      0.001184288293     -0.000153389979
                   3      0.004386030001      0.001681840905      0.004050417492    -5.280606632e-05
                   4      0.008015610976      0.001901086688      0.007786868894    -2.369703124e-05
                   5                   0                   0                   0                   0
                   6      0.001577511543      0.001030764484      0.001184288293      0.000153389979
                   7      0.004386030001      0.001681840905      0.004050417492     5.280606632e-05
                   8      0.008015610976      0.001901086688      0.007786868894     2.369703124e-05
                   9                   0                   0                   0                   0
                  10      0.001577511543     -0.001030764484      0.001184288293      0.000153389979
                  11      0.004386030001     -0.001681840905      0.004050417492     5.280606632e-05
                  12      0.008015610976     -0.001901086688      0.007786868894     2.369703124e-05
                  13                   0                   0                   0                   0
                  14      0.001577511543     -0.001030764484      0.001184288293     -0.000153389979
                  15      0.004386030001     -0.001681840905      0.004050417492    -5.280606632e-05
                  16      0.008015610976     -0.001901086688      0.007786868894    -2.369703124e-05

***** Stress Data ******
          Element No         Integral No           Stress XX           Stress YY           Stress ZZ           Stress XY           Stress XZ           Stress YZ               Mises            YieldFlg
                   1                   1         62.07355278        -34.05994872        -28.01360406         60.46675075        -4.129730205         3.023172331         140.5141227               False
                   1                   2         56.56724585        -39.56625566        -17.00099018        -35.66675075        -4.129730205         11.28263274         108.7702721               False
                   1                   3        -56.56724585         39.56625566         17.00099018        -35.66675075         4.129730205         11.28263274         108.7702721               False
                   1                   4        -62.07355278         34.05994872         28.01360406         60.46675075         4.129730205         3.023172331         140.5141227               False
                   1                   5         62.07355278        -34.05994872        -28.01360406         60.46675075         4.129730205        -3.023172331         140.5141227               False
                   1                   6         56.56724585        -39.56625566        -17.00099018        -35.66675075         4.129730205        -11.28263274         108.7702721               False
                   1                   7        -56.56724585         39.56625566         17.00099018        -35.66675075        -4.129730205        -11.28263274         108.7702721               False
                   1                   8        -62.07355278         34.05994872         28.01360406         60.46675075        -4.129730205        -3.023172331         140.5141227               False
                   2                   1         32.26585281        -28.45631709        -3.809535725         42.76108495         2.708028419         12.32339068         93.60111639               False
                   2                   2         35.87655737        -24.84561253        -11.03094484        -17.96108495         2.708028419         6.907333842         64.59184249               False
                   2                   3        -35.87655737         24.84561253         11.03094484        -17.96108495        -2.708028419         6.907333842         64.59184249               False
                   2                   4        -32.26585281         28.45631709         3.809535725         42.76108495        -2.708028419         12.32339068         93.60111639               False
                   2                   5         32.26585281        -28.45631709        -3.809535725         42.76108495        -2.708028419        -12.32339068         93.60111639               False
                   2                   6         35.87655737        -24.84561253        -11.03094484        -17.96108495        -2.708028419        -6.907333842         64.59184249               False
                   2                   7        -35.87655737         24.84561253         11.03094484        -17.96108495         2.708028419        -6.907333842         64.59184249               False
                   2                   8        -32.26585281         28.45631709         3.809535725         42.76108495         2.708028419        -12.32339068         93.60111639               False
                   3                   1         10.73106074        -9.716738095        -1.014322642         22.62389942        0.7837047906         4.351207726         43.70427154               False
                   3                   2         11.77600046        -8.671798374        -3.104202084         2.176100584        0.7837047906         2.783798145         19.35362844               False
                   3                   3        -11.77600046         8.671798374         3.104202084         2.176100584       -0.7837047906         2.783798145         19.35362844               False
                   3                   4        -10.73106074         9.716738095         1.014322642         22.62389942       -0.7837047906         4.351207726         43.70427154               False
                   3                   5         10.73106074        -9.716738095        -1.014322642         22.62389942       -0.7837047906        -4.351207726         43.70427154               False
                   3                   6         11.77600046        -8.671798374        -3.104202084         2.176100584       -0.7837047906        -2.783798145         19.35362844               False
                   3                   7        -11.77600046         8.671798374         3.104202084         2.176100584        0.7837047906        -2.783798145         19.35362844               False
                   3                   8        -10.73106074         9.716738095         1.014322642         22.62389942        0.7837047906        -4.351207726         43.70427154               False

***** Strain Data ******
          Element No         Integral No           Strain XX           Strain YY           Strain ZZ           Strain XY           Strain XZ           Strain YZ
                   1                   1     0.0003842648506    -0.0002108473016    -0.0001734175489     0.0007486359617    -5.112999301e-05     3.742975267e-05
                   1                   2     0.0003501781886    -0.0002449339636    -0.0001052442249    -0.0004415883427    -5.112999301e-05     0.0001396897387
                   1                   3    -0.0003501781886     0.0002449339636     0.0001052442249    -0.0004415883427     5.112999301e-05     0.0001396897387
                   1                   4    -0.0003842648506     0.0002108473016     0.0001734175489     0.0007486359617     5.112999301e-05     3.742975267e-05
                   1                   5     0.0003842648506    -0.0002108473016    -0.0001734175489     0.0007486359617     5.112999301e-05    -3.742975267e-05
                   1                   6     0.0003501781886    -0.0002449339636    -0.0001052442249    -0.0004415883427     5.112999301e-05    -0.0001396897387
                   1                   7    -0.0003501781886     0.0002449339636     0.0001052442249    -0.0004415883427    -5.112999301e-05    -0.0001396897387
                   1                   8    -0.0003842648506     0.0002108473016     0.0001734175489     0.0007486359617    -5.112999301e-05    -3.742975267e-05
                   2                   1     0.0001997409936    -0.0001761581534     -2.35828402e-05     0.0005294229565     3.352797091e-05     0.0001525753132
                   2                   2     0.0002220929742    -0.0001538061728    -6.828680141e-05    -0.0002223753375     3.352797091e-05     8.551937138e-05
                   2                   3    -0.0002220929742     0.0001538061728     6.828680141e-05    -0.0002223753375    -3.352797091e-05     8.551937138e-05
                   2                   4    -0.0001997409936     0.0001761581534      2.35828402e-05     0.0005294229565    -3.352797091e-05     0.0001525753132
                   2                   5     0.0001997409936    -0.0001761581534     -2.35828402e-05     0.0005294229565    -3.352797091e-05    -0.0001525753132
                   2                   6     0.0002220929742    -0.0001538061728    -6.828680141e-05    -0.0002223753375    -3.352797091e-05    -8.551937138e-05
                   2                   7    -0.0002220929742     0.0001538061728     6.828680141e-05    -0.0002223753375     3.352797091e-05    -8.551937138e-05
                   2                   8    -0.0001997409936     0.0001761581534      2.35828402e-05     0.0005294229565     3.352797091e-05    -0.0001525753132
                   3                   1     6.643037599e-05    -6.015123583e-05    -6.279140167e-06     0.0002801054213     9.703011693e-06     5.387209566e-05
                   3                   2     7.289905045e-05    -5.368256136e-05    -1.921648909e-05      2.69421977e-05     9.703011693e-06     3.446607227e-05
                   3                   3    -7.289905045e-05     5.368256136e-05     1.921648909e-05      2.69421977e-05    -9.703011693e-06     3.446607227e-05
                   3                   4    -6.643037599e-05     6.015123583e-05     6.279140167e-06     0.0002801054213    -9.703011693e-06     5.387209566e-05
                   3                   5     6.643037599e-05    -6.015123583e-05    -6.279140167e-06     0.0002801054213    -9.703011693e-06    -5.387209566e-05
                   3                   6     7.289905045e-05    -5.368256136e-05    -1.921648909e-05      2.69421977e-05    -9.703011693e-06    -3.446607227e-05
                   3                   7    -7.289905045e-05     5.368256136e-05     1.921648909e-05      2.69421977e-05     9.703011693e-06    -3.446607227e-05
                   3                   8    -6.643037599e-05     6.015123583e-05     6.279140167e-06     0.0002801054213     9.703011693e-06    -5.387209566e-05

***** Plastic Strain Data ******
          Element No         Integral No          PStrain XX          PStrain YY          PStrain ZZ          PStrain XY          PStrain XZ          PStrain YZ
                   1                   1                   0                   0                   0                   0                   0                   0
                   1                   2                   0                   0                   0                   0                   0                   0
                   1                   3                   0                   0                   0                   0                   0                   0
                   1                   4                   0                   0                   0                   0                   0                   0
                   1                   5                   0                   0                   0                   0                   0                   0
                   1                   6                   0                   0                   0                   0                   0                   0
                   1                   7                   0                   0                   0                   0                   0                   0
                   1                   8                   0                   0                   0                   0                   0                   0
                   2                   1                   0                   0                   0                   0                   0                   0
                   2                   2                   0                   0                   0                   0                   0                   0
                   2                   3                   0                   0                   0                   0                   0                   0
                   2                   4                   0                   0                   0                   0                   0                   0
                   2                   5                   0                   0                   0                   0                   0                   0
                   2                   6                   0                   0                   0                   0                   0                   0
                   2                   7                   0                   0                   0                   0                   0                   0
                   2                   8                   0                   0                   0                   0                   0                   0
                   3                   1                   0                   0                   0                   0                   0                   0
                   3                   2                   0                   0                   0                   0                   0                   0
                   3                   3                   0                   0                   0                   0                   0                   0
                   3                   4                   0                   0                   0                   0                   0                   0
                   3                   5                   0                   0                   0                   0                   0                   0
                   3                   6                   0                   0                   0                   0                   0                   0
                   3                   7                   0                   0                   0                   0                   0                   0
                   3                   8                   0                   0                   0                   0                   0                   0

***** Reaction Force Data ******
              NodeNo           Magnitude             X Force             Y Force             Z Force----------------------------------------------------------------------------------------------------
                   1         19.15416958               -18.6                -3.1         3.363363241
                   2      6.28429384e-14     3.907985047e-14     4.840572387e-14     8.881784197e-15
                   3     5.895673662e-14     5.240252676e-14     2.087219286e-14    -1.715294573e-14
                   4     1.071534939e-13     7.174816297e-14    -7.949196856e-14     3.885780586e-15
                   5         19.15416958               -18.6                -3.1        -3.363363241
                   6     8.254476457e-14     2.842170943e-14     7.505107646e-14     1.931788063e-14
                   7     4.398627404e-14    -2.309263891e-14    -3.685940442e-14    -6.550315845e-15
                   8     6.826518806e-14     6.250555629e-14     -2.70894418e-14    -4.399258735e-15
                   9         19.15416958                18.6                -3.1        -3.363363241
                  10     1.749649494e-14    -1.776356839e-15     1.598721155e-14    -6.883382753e-15
                  11     1.088691287e-13    -1.030286967e-13     3.330669074e-14    -1.132427485e-14
                  12     5.484580752e-14    -3.395894677e-14    -3.730349363e-14     2.152444889e-14
                  13         19.15416958                18.6                -3.1         3.363363241
                  14     2.846417843e-14    -1.421085472e-14    -1.687538997e-14      -1.7985613e-14
                  15     1.211599261e-13    -1.119104809e-13    -3.730349363e-14    -2.764455331e-14
                  16     7.984397557e-14     7.271960811e-14     1.287858709e-14     3.034898721e-14

*Increment 32

***** Displacement Data ******
              NodeNo           Magnitude      X Displacement      Y Displacement      Z Displacement
----------------------------------------------------------------------------------------------------
                   1                   0                   0                   0                   0
                   2      0.001628399012      0.001064014951      0.001222491142    -0.0001583380429
                   3      0.004527514839      0.001736093837       0.00418107612    -5.450948781e-05
                   4      0.008274179072      0.001962412065      0.008038058213     -2.44614516e-05
                   5                   0                   0                   0                   0
                   6      0.001628399012      0.001064014951      0.001222491142     0.0001583380429
                   7      0.004527514839      0.001736093837       0.00418107612     5.450948781e-05
                   8      0.008274179072      0.001962412065      0.008038058213      2.44614516e-05
                   9                   0                   0                   0                   0
                  10      0.001628399012     -0.001064014951      0.001222491142     0.0001583380429
                  11      0.004527514839     -0.001736093837       0.00418107612     5.450948781e-05
                  12      0.008274179072     -0.001962412065      0.008038058213      2.44614516e-05
                  13                   0                   0                   0                   0
                  14      0.001628399012     -0.001064014951      0.001222491142    -0.0001583380429
                  15      0.004527514839     -0.001736093837       0.00418107612    -5.450948781e-05
                  16      0.008274179072     -0.001962412065      0.008038058213     -2.44614516e-05

***** Stress Data ******
          Element No         Integral No           Stress XX           Stress YY           Stress ZZ           Stress XY           Stress XZ           Stress YZ               Mises            YieldFlg
                   1                   1         64.07592546        -35.15865675        -28.91726871          62.4172911        -4.262947308          3.12069402         145.0468363               False
                   1                   2         58.39199571        -40.84258649        -17.54940922         -36.8172911        -4.262947308         11.64658864         112.2789905               False
                   1                   3        -58.39199571         40.84258649         17.54940922         -36.8172911         4.262947308         11.64658864         112.2789905               False
                   1                   4        -64.07592546         35.15865675         28.91726871          62.4172911         4.262947308          3.12069402         145.0468363               False
                   1                   5         64.07592546        -35.15865675        -28.91726871          62.4172911         4.262947308         -3.12069402         145.0468363               False
                   1                   6         58.39199571        -40.84258649        -17.54940922         -36.8172911         4.262947308        -11.64658864         112.2789905               False
                   1                   7        -58.39199571         40.84258649         17.54940922         -36.8172911        -4.262947308        -11.64658864         112.2789905               False
                   1                   8        -64.07592546         35.15865675         28.91726871          62.4172911        -4.262947308         -3.12069402         145.0468363               False
                   2                   1         33.30668677         -29.3742628        -3.932423974         44.14047479         2.795384175         12.72091941         96.62050724               False
                   2                   2         37.03386567         -25.6470839        -11.38678177        -18.54047479         2.795384175         7.130151063         66.67545031               False
                   2                   3        -37.03386567          25.6470839         11.38678177        -18.54047479        -2.795384175         7.130151063         66.67545031               False
                   2                   4        -33.30668677          29.3742628         3.932423974         44.14047479        -2.795384175         12.72091941         96.62050724               False
                   2                   5         33.30668677         -29.3742628        -3.932423974         44.14047479        -2.795384175        -12.72091941         96.62050724               False
                   2                   6         37.03386567         -25.6470839        -11.38678177        -18.54047479        -2.795384175        -7.130151063         66.67545031               False
                   2                   7        -37.03386567          25.6470839         11.38678177        -18.54047479         2.795384175        -7.130151063         66.67545031               False
                   2                   8        -33.30668677          29.3742628         3.932423974         44.14047479         2.795384175        -12.72091941         96.62050724               False
                   3                   1         11.07722399        -10.03018126        -1.047042728         23.35370262        0.8089855903         4.491569266         45.11408676               False
                   3                   2         12.15587144        -8.951533806        -3.204337635         2.246297377        0.8089855903         2.873598085         19.97793904               False
                   3                   3        -12.15587144         8.951533806         3.204337635         2.246297377       -0.8089855903         2.873598085         19.97793904               False
                   3                   4        -11.07722399         10.03018126         1.047042728         23.35370262       -0.8089855903         4.491569266         45.11408676               False
                   3                   5         11.07722399        -10.03018126        -1.047042728         23.35370262       -0.8089855903        -4.491569266         45.11408676               False
                   3                   6         12.15587144        -8.951533806        -3.204337635         2.246297377       -0.8089855903        -2.873598085         19.97793904               False
                   3                   7        -12.15587144         8.951533806         3.204337635         2.246297377        0.8089855903        -2.873598085         19.97793904               False
                   3                   8        -11.07722399         10.03018126         1.047042728         23.35370262        0.8089855903        -4.491569266         45.11408676               False

***** Strain Data ******
          Element No         Integral No           Strain XX           Strain YY           Strain ZZ           Strain XY           Strain XZ           Strain YZ
                   1                   1     0.0003966604909    -0.0002176488275    -0.0001790116634     0.0007727855089    -5.277934762e-05     3.863716405e-05
                   1                   2     0.0003614742592    -0.0002528350592    -0.0001086391999    -0.0004558331279    -5.277934762e-05     0.0001441958593
                   1                   3    -0.0003614742592     0.0002528350592     0.0001086391999    -0.0004558331279     5.277934762e-05     0.0001441958593
                   1                   4    -0.0003966604909     0.0002176488275     0.0001790116634     0.0007727855089     5.277934762e-05     3.863716405e-05
                   1                   5     0.0003966604909    -0.0002176488275    -0.0001790116634     0.0007727855089     5.277934762e-05    -3.863716405e-05
                   1                   6     0.0003614742592    -0.0002528350592    -0.0001086391999    -0.0004558331279     5.277934762e-05    -0.0001441958593
                   1                   7    -0.0003614742592     0.0002528350592     0.0001086391999    -0.0004558331279    -5.277934762e-05    -0.0001441958593
                   1                   8    -0.0003966604909     0.0002176488275     0.0001790116634     0.0007727855089    -5.277934762e-05    -3.863716405e-05
                   2                   1     0.0002061842515    -0.0001818406745    -2.434357698e-05     0.0005465011164     3.460951835e-05     0.0001574970975
                   2                   2     0.0002292572637    -0.0001587676622    -7.048960146e-05    -0.0002295487355     3.460951835e-05     8.827806078e-05
                   2                   3    -0.0002292572637     0.0001587676622     7.048960146e-05    -0.0002295487355    -3.460951835e-05     8.827806078e-05
                   2                   4    -0.0002061842515     0.0001818406745     2.434357698e-05     0.0005465011164    -3.460951835e-05     0.0001574970975
                   2                   5     0.0002061842515    -0.0001818406745    -2.434357698e-05     0.0005465011164    -3.460951835e-05    -0.0001574970975
                   2                   6     0.0002292572637    -0.0001587676622    -7.048960146e-05    -0.0002295487355    -3.460951835e-05    -8.827806078e-05
                   2                   7    -0.0002292572637     0.0001587676622     7.048960146e-05    -0.0002295487355     3.460951835e-05    -8.827806078e-05
                   2                   8    -0.0002061842515     0.0001818406745     2.434357698e-05     0.0005465011164     3.460951835e-05    -0.0001574970975
                   3                   1     6.857329135e-05    -6.209159827e-05    -6.481693076e-06     0.0002891410801     1.001601207e-05      5.56099052e-05
                   3                   2     7.525063273e-05    -5.541425689e-05    -1.983637584e-05     2.781130086e-05     1.001601207e-05     3.557788106e-05
                   3                   3    -7.525063273e-05     5.541425689e-05     1.983637584e-05     2.781130086e-05    -1.001601207e-05     3.557788106e-05
                   3                   4    -6.857329135e-05     6.209159827e-05     6.481693076e-06     0.0002891410801    -1.001601207e-05      5.56099052e-05
                   3                   5     6.857329135e-05    -6.209159827e-05    -6.481693076e-06     0.0002891410801    -1.001601207e-05     -5.56099052e-05
                   3                   6     7.525063273e-05    -5.541425689e-05    -1.983637584e-05     2.781130086e-05    -1.001601207e-05    -3.557788106e-05
                   3                   7    -7.525063273e-05     5.541425689e-05     1.983637584e-05     2.781130086e-05     1.001601207e-05    -3.557788106e-05
                   3                   8    -6.857329135e-05     6.209159827e-05     6.481693076e-06     0.0002891410801     1.001601207e-05     -5.56099052e-05

***** Plastic Strain Data ******
          Element No         Integral No          PStrain XX          PStrain YY          PStrain ZZ          PStrain XY          PStrain XZ          PStrain YZ
                   1                   1                   0                   0                   0                   0                   0                   0
                   1                   2                   0                   0                   0                   0                   0                   0
                   1                   3                   0                   0                   0                   0                   0                   0
                   1                   4                   0                   0                   0                   0                   0                   0
                   1                   5                   0                   0                   0                   0                   0                   0
                   1                   6                   0                   0                   0                   0                   0                   0
                   1                   7                   0                   0                   0                   0                   0                   0
                   1                   8                   0                   0                   0                   0                   0                   0
                   2                   1                   0                   0                   0                   0                   0                   0
                   2                   2                   0                   0                   0                   0                   0                   0
                   2                   3                   0                   0                   0                   0                   0                   0
                   2                   4                   0                   0                   0                   0                   0                   0
                   2                   5                   0                   0                   0                   0                   0                   0
                   2                   6                   0                   0                   0                   0                   0                   0
                   2                   7                   0                   0                   0                   0                   0                   0
                   2                   8                   0                   0                   0                   0                   0                   0
                   3                   1                   0                   0                   0                   0                   0                   0
                   3                   2                   0                   0                   0                   0                   0                   0
                   3                   3                   0                   0                   0                   0                   0                   0
                   3                   4                   0                   0                   0                   0                   0                   0
                   3                   5                   0                   0                   0                   0                   0                   0
                   3                   6                   0                   0                   0                   0                   0                   0
                   3                   7                   0                   0                   0                   0                   0                   0
                   3                   8                   0                   0                   0                   0                   0                   0

***** Reaction Force Data ******
              NodeNo           Magnitude             X Force             Y Force             Z Force----------------------------------------------------------------------------------------------------
                   1         19.77204602               -19.2                -3.2         3.471858829
                   2     6.466379615e-14     3.907985047e-14     5.062616992e-14     9.547918012e-15
                   3     3.413177515e-14     2.309263891e-14    -2.220446049e-15    -2.503552921e-14
                   4      8.59322687e-14     6.333822355e-14    -5.728750807e-14      9.52710133e-15
                   5         19.77204602               -19.2                -3.2        -3.471858829
                   6     9.398573982e-14     2.486899575e-14     8.792966355e-14     2.198241589e-14
                   7     7.035074298e-14     -4.97379915e-14     -4.97379915e-14     1.221245327e-15
                   8     5.411936554e-14     5.195843755e-14    -1.465494393e-14     3.802513859e-15
                   9         19.77204602                19.2                -3.2        -3.471858829
                  10     1.659254218e-14     1.598721155e-14                   0    -4.440892099e-15
                  11     7.514331938e-14    -6.217248938e-14     3.774758284e-14    -1.887379142e-14
                  12     2.006790019e-14    -1.597333377e-14    -7.105427358e-15    -9.853229344e-15
                  13         19.77204602                19.2                -3.2         3.471858829
                  14     4.558354554e-14    -7.105427358e-15    -4.174438573e-14    -1.687538997e-14
                  15     1.082067268e-13    -1.003641614e-13    -3.641531521e-14    -1.759703494e-14
                  16     9.028879444e-14     8.176792576e-14     7.549516567e-15      3.75376813e-14

*Increment 33

***** Displacement Data ******
              NodeNo           Magnitude      X Displacement      Y Displacement      Z Displacement
----------------------------------------------------------------------------------------------------
                   1                   0                   0                   0                   0
                   2      0.001679286481      0.001097265418       0.00126069399    -0.0001632861067
                   3      0.004668999678       0.00179034677      0.004311734749     -5.62129093e-05
                   4      0.008532747168      0.002023737442      0.008289247532    -2.522587196e-05
                   5                   0                   0                   0                   0
                   6      0.001679286481      0.001097265418       0.00126069399     0.0001632861067
                   7      0.004668999678       0.00179034677      0.004311734749      5.62129093e-05
                   8      0.008532747168      0.002023737442      0.008289247532     2.522587196e-05
                   9                   0                   0                   0                   0
                  10      0.001679286481     -0.001097265418       0.00126069399     0.0001632861067
                  11      0.004668999678      -0.00179034677      0.004311734749      5.62129093e-05
                  12      0.008532747168     -0.002023737442      0.008289247532     2.522587196e-05
                  13                   0                   0                   0                   0
                  14      0.001679286481     -0.001097265418       0.00126069399    -0.0001632861067
                  15      0.004668999678      -0.00179034677      0.004311734749     -5.62129093e-05
                  16      0.008532747168     -0.002023737442      0.008289247532    -2.522587196e-05

***** Stress Data ******
          Element No         Integral No           Stress XX           Stress YY           Stress ZZ           Stress XY           Stress XZ           Stress YZ               Mises            YieldFlg
                   1                   1         66.07829813        -36.25736477        -29.82093336         64.36783145        -4.396164412         3.218215708           149.57955               False
                   1                   2         60.21674558        -42.11891732        -18.09782826        -37.96783145        -4.396164412         12.01054453          115.787709               False
                   1                   3        -60.21674558         42.11891732         18.09782826        -37.96783145         4.396164412         12.01054453          115.787709               False
                   1                   4        -66.07829813         36.25736477         29.82093336         64.36783145         4.396164412         3.218215708           149.57955               False
                   1                   5         66.07829813        -36.25736477        -29.82093336         64.36783145         4.396164412        -3.218215708           149.57955               False
                   1                   6         60.21674558        -42.11891732        -18.09782826        -37.96783145         4.396164412        -12.01054453          115.787709               False
                   1                   7        -60.21674558         42.11891732         18.09782826        -37.96783145        -4.396164412        -12.01054453          115.787709               False
                   1                   8        -66.07829813         36.25736477         29.82093336         64.36783145        -4.396164412        -3.218215708           149.57955               False
                   2                   1         34.34752074        -30.29220851        -4.055312223         45.51986462          2.88273993         13.11844814         99.63989809               False
                   2                   2         38.19117398        -26.44855527         -11.7426187        -19.11986462          2.88273993         7.352968284         68.75905813               False
                   2                   3        -38.19117398         26.44855527          11.7426187        -19.11986462         -2.88273993         7.352968284         68.75905813               False
                   2                   4        -34.34752074         30.29220851         4.055312223         45.51986462         -2.88273993         13.11844814         99.63989809               False
                   2                   5         34.34752074        -30.29220851        -4.055312223         45.51986462         -2.88273993        -13.11844814         99.63989809               False
                   2                   6         38.19117398        -26.44855527         -11.7426187        -19.11986462         -2.88273993        -7.352968284         68.75905813               False
                   2                   7        -38.19117398         26.44855527          11.7426187        -19.11986462          2.88273993        -7.352968284         68.75905813               False
                   2                   8        -34.34752074         30.29220851         4.055312223         45.51986462          2.88273993        -13.11844814         99.63989809               False
                   3                   1         11.42338724        -10.34362442        -1.079762813         24.08350583          0.83426639         4.631930805         46.52390197               False
                   3                   2         12.53574242        -9.231269237        -3.304473186          2.31649417          0.83426639         2.963398026         20.60224963               False
                   3                   3        -12.53574242         9.231269237         3.304473186          2.31649417         -0.83426639         2.963398026         20.60224963               False
                   3                   4        -11.42338724         10.34362442         1.079762813         24.08350583         -0.83426639         4.631930805         46.52390197               False
                   3                   5         11.42338724        -10.34362442        -1.079762813         24.08350583         -0.83426639        -4.631930805         46.52390197               False
                   3                   6         12.53574242        -9.231269237        -3.304473186          2.31649417         -0.83426639        -2.963398026         20.60224963               False
                   3                   7        -12.53574242         9.231269237         3.304473186          2.31649417          0.83426639        -2.963398026         20.60224963               False
                   3                   8        -11.42338724         10.34362442         1.079762813         24.08350583          0.83426639        -4.631930805         46.52390197               False

***** Strain Data ******
          Element No         Integral No           Strain XX           Strain YY           Strain ZZ           Strain XY           Strain XZ           Strain YZ
                   1                   1     0.0004090561313    -0.0002244503533    -0.0001846057779      0.000796935056    -5.442870224e-05     3.984457543e-05
                   1                   2     0.0003727703298    -0.0002607361548    -0.0001120341749    -0.0004700779132    -5.442870224e-05     0.0001487019799
                   1                   3    -0.0003727703298     0.0002607361548     0.0001120341749    -0.0004700779132     5.442870224e-05     0.0001487019799
                   1                   4    -0.0004090561313     0.0002244503533     0.0001846057779      0.000796935056     5.442870224e-05     3.984457543e-05
                   1                   5     0.0004090561313    -0.0002244503533    -0.0001846057779      0.000796935056     5.442870224e-05    -3.984457543e-05
                   1                   6     0.0003727703298    -0.0002607361548    -0.0001120341749    -0.0004700779132     5.442870224e-05    -0.0001487019799
                   1                   7    -0.0003727703298     0.0002607361548     0.0001120341749    -0.0004700779132    -5.442870224e-05    -0.0001487019799
                   1                   8    -0.0004090561313     0.0002244503533     0.0001846057779      0.000796935056    -5.442870224e-05    -3.984457543e-05
                   2                   1     0.0002126275093    -0.0001875231956    -2.510431376e-05     0.0005635792763      3.56910658e-05     0.0001624188818
                   2                   2     0.0002364215532    -0.0001637291517     -7.26924015e-05    -0.0002367221334      3.56910658e-05     9.103675018e-05
                   2                   3    -0.0002364215532     0.0001637291517      7.26924015e-05    -0.0002367221334     -3.56910658e-05     9.103675018e-05
                   2                   4    -0.0002126275093     0.0001875231956     2.510431376e-05     0.0005635792763     -3.56910658e-05     0.0001624188818
                   2                   5     0.0002126275093    -0.0001875231956    -2.510431376e-05     0.0005635792763     -3.56910658e-05    -0.0001624188818
                   2                   6     0.0002364215532    -0.0001637291517     -7.26924015e-05    -0.0002367221334     -3.56910658e-05    -9.103675018e-05
                   2                   7    -0.0002364215532     0.0001637291517      7.26924015e-05    -0.0002367221334      3.56910658e-05    -9.103675018e-05
                   2                   8    -0.0002126275093     0.0001875231956     2.510431376e-05     0.0005635792763      3.56910658e-05    -0.0001624188818
                   3                   1      7.07162067e-05    -6.403196072e-05    -6.684245984e-06     0.0002981767388     1.032901245e-05     5.734771473e-05
                   3                   2       7.7602215e-05    -5.714595242e-05    -2.045626258e-05     2.868040401e-05     1.032901245e-05     3.668968984e-05
                   3                   3      -7.7602215e-05     5.714595242e-05     2.045626258e-05     2.868040401e-05    -1.032901245e-05     3.668968984e-05
                   3                   4     -7.07162067e-05     6.403196072e-05     6.684245984e-06     0.0002981767388    -1.032901245e-05     5.734771473e-05
                   3                   5      7.07162067e-05    -6.403196072e-05    -6.684245984e-06     0.0002981767388    -1.032901245e-05    -5.734771473e-05
                   3                   6       7.7602215e-05    -5.714595242e-05    -2.045626258e-05     2.868040401e-05    -1.032901245e-05    -3.668968984e-05
                   3                   7      -7.7602215e-05     5.714595242e-05     2.045626258e-05     2.868040401e-05     1.032901245e-05    -3.668968984e-05
                   3                   8     -7.07162067e-05     6.403196072e-05     6.684245984e-06     0.0002981767388     1.032901245e-05    -5.734771473e-05

***** Plastic Strain Data ******
          Element No         Integral No          PStrain XX          PStrain YY          PStrain ZZ          PStrain XY          PStrain XZ          PStrain YZ
                   1                   1                   0                   0                   0                   0                   0                   0
                   1                   2                   0                   0                   0                   0                   0                   0
                   1                   3                   0                   0                   0                   0                   0                   0
                   1                   4                   0                   0                   0                   0                   0                   0
                   1                   5                   0                   0                   0                   0                   0                   0
                   1                   6                   0                   0                   0                   0                   0                   0
                   1                   7                   0                   0                   0                   0                   0                   0
                   1                   8                   0                   0                   0                   0                   0                   0
                   2                   1                   0                   0                   0                   0                   0                   0
                   2                   2                   0                   0                   0                   0                   0                   0
                   2                   3                   0                   0                   0                   0                   0                   0
                   2                   4                   0                   0                   0                   0                   0                   0
                   2                   5                   0                   0                   0                   0                   0                   0
                   2                   6                   0                   0                   0                   0                   0                   0
                   2                   7                   0                   0                   0                   0                   0                   0
                   2                   8                   0                   0                   0                   0                   0                   0
                   3                   1                   0                   0                   0                   0                   0                   0
                   3                   2                   0                   0                   0                   0                   0                   0
                   3                   3                   0                   0                   0                   0                   0                   0
                   3                   4                   0                   0                   0                   0                   0                   0
                   3                   5                   0                   0                   0                   0                   0                   0
                   3                   6                   0                   0                   0                   0                   0                   0
                   3                   7                   0                   0                   0                   0                   0                   0
                   3                   8                   0                   0                   0                   0                   0                   0

***** Reaction Force Data ******
              NodeNo           Magnitude             X Force             Y Force             Z Force----------------------------------------------------------------------------------------------------
                   1         20.38992246               -19.8                -3.3         3.580354418
                   2     8.818526015e-14     5.151434834e-14     6.927791674e-14       1.7985613e-14
                   3     4.587733862e-14     3.197442311e-14     2.486899575e-14    -2.153832668e-14
                   4     1.071890164e-13     7.085998455e-14    -8.038014698e-14    -2.716576963e-15
                   5         20.38992246               -19.8                -3.3        -3.580354418
                   6     1.027558042e-13     2.842170943e-14     9.725553696e-14     1.709743458e-14
                   7     6.270020777e-14    -5.950795412e-14      1.33226763e-15    -1.970645869e-14
                   8     8.417560154e-14     8.004708008e-14    -2.575717417e-14     3.816391647e-15
                   9         20.38992246                19.8                -3.3        -3.580354418
                  10      2.70894418e-14     2.486899575e-14    -1.065814104e-14     -1.33226763e-15
                  11      9.82042315e-14    -9.769962617e-14     4.884981308e-15    -8.659739592e-15
                  12     2.204260227e-14     -1.45716772e-14    -1.287858709e-14    -1.037711583e-14
                  13         20.38992246                19.8                -3.3         3.580354418
                  14     6.997224101e-14     1.243449788e-14    -6.394884622e-14    -2.553512957e-14
                  15     1.383949445e-13    -1.367794766e-13    -2.042810365e-14    -5.218048216e-15
                  16     8.670366261e-14     7.210898545e-14    -1.154631946e-14     4.673865461e-14

*Increment 34

***** Displacement Data ******
              NodeNo           Magnitude      X Displacement      Y Displacement      Z Displacement
----------------------------------------------------------------------------------------------------
                   1                   0                   0                   0                   0
                   2       0.00173017395      0.001130515885      0.001298896838    -0.0001682341706
                   3      0.004810484517      0.001844599702      0.004442393378     -5.79163308e-05
                   4      0.008791315264      0.002085062819      0.008540436851    -2.599029233e-05
                   5                   0                   0                   0                   0
                   6       0.00173017395      0.001130515885      0.001298896838     0.0001682341706
                   7      0.004810484517      0.001844599702      0.004442393378      5.79163308e-05
                   8      0.008791315264      0.002085062819      0.008540436851     2.599029233e-05
                   9                   0                   0                   0                   0
                  10       0.00173017395     -0.001130515885      0.001298896838     0.0001682341706
                  11      0.004810484517     -0.001844599702      0.004442393378      5.79163308e-05
                  12      0.008791315264     -0.002085062819      0.008540436851     2.599029233e-05
                  13                   0                   0                   0                   0
                  14       0.00173017395     -0.001130515885      0.001298896838    -0.0001682341706
                  15      0.004810484517     -0.001844599702      0.004442393378     -5.79163308e-05
                  16      0.008791315264     -0.002085062819      0.008540436851    -2.599029233e-05

***** Stress Data ******
          Element No         Integral No           Stress XX           Stress YY           Stress ZZ           Stress XY           Stress XZ           Stress YZ               Mises            YieldFlg
                   1                   1          68.0806708        -37.35607279          -30.724598          66.3183718        -4.529381515         3.315737396         154.1122636               False
                   1                   2         62.04149544        -43.39524815         -18.6462473         -39.1183718        -4.529381515         12.37450043         119.2964274               False
                   1                   3        -62.04149544         43.39524815          18.6462473         -39.1183718         4.529381515         12.37450043         119.2964274               False
                   1                   4         -68.0806708         37.35607279           30.724598          66.3183718         4.529381515         3.315737396         154.1122636               False
                   1                   5          68.0806708        -37.35607279          -30.724598          66.3183718         4.529381515        -3.315737396         154.1122636               False
                   1                   6         62.04149544        -43.39524815         -18.6462473         -39.1183718         4.529381515        -12.37450043         119.2964274               False
                   1                   7        -62.04149544         43.39524815          18.6462473         -39.1183718        -4.529381515        -12.37450043         119.2964274               False
                   1                   8         -68.0806708         37.35607279           30.724598          66.3183718        -4.529381515        -3.315737396         154.1122636               False
                   2                   1          35.3883547        -31.21015422        -4.178200473         46.89925446         2.970095686         13.51597688         102.6592889               False
                   2                   2         39.34848228        -27.25002664        -12.09845563        -19.69925446         2.970095686         7.575785505         70.84266596               False
                   2                   3        -39.34848228         27.25002664         12.09845563        -19.69925446        -2.970095686         7.575785505         70.84266596               False
                   2                   4         -35.3883547         31.21015422         4.178200473         46.89925446        -2.970095686         13.51597688         102.6592889               False
                   2                   5          35.3883547        -31.21015422        -4.178200473         46.89925446        -2.970095686        -13.51597688         102.6592889               False
                   2                   6         39.34848228        -27.25002664        -12.09845563        -19.69925446        -2.970095686        -7.575785505         70.84266596               False
                   2                   7        -39.34848228         27.25002664         12.09845563        -19.69925446         2.970095686        -7.575785505         70.84266596               False
                   2                   8         -35.3883547         31.21015422         4.178200473         46.89925446         2.970095686        -13.51597688         102.6592889               False
                   3                   1         11.76955049        -10.65706759        -1.112482898         24.81330904        0.8595471896         4.772292345         47.93371718               False
                   3                   2         12.91561341        -9.511004669        -3.404608737         2.386690963        0.8595471896         3.053197966         21.22656022               False
                   3                   3        -12.91561341         9.511004669         3.404608737         2.386690963       -0.8595471896         3.053197966         21.22656022               False
                   3                   4        -11.76955049         10.65706759         1.112482898         24.81330904       -0.8595471896         4.772292345         47.93371718               False
                   3                   5         11.76955049        -10.65706759        -1.112482898         24.81330904       -0.8595471896        -4.772292345         47.93371718               False
                   3                   6         12.91561341        -9.511004669        -3.404608737         2.386690963       -0.8595471896        -3.053197966         21.22656022               False
                   3                   7        -12.91561341         9.511004669         3.404608737         2.386690963        0.8595471896        -3.053197966         21.22656022               False
                   3                   8        -11.76955049         10.65706759         1.112482898         24.81330904        0.8595471896        -4.772292345         47.93371718               False

***** Strain Data ******
          Element No         Integral No           Strain XX           Strain YY           Strain ZZ           Strain XY           Strain XZ           Strain YZ
                   1                   1     0.0004214517716    -0.0002312518792    -0.0001901998924     0.0008210846032    -5.607805685e-05      4.10519868e-05
                   1                   2     0.0003840664004    -0.0002686372504    -0.0001154291499    -0.0004843226984    -5.607805685e-05     0.0001532081005
                   1                   3    -0.0003840664004     0.0002686372504     0.0001154291499    -0.0004843226984     5.607805685e-05     0.0001532081005
                   1                   4    -0.0004214517716     0.0002312518792     0.0001901998924     0.0008210846032     5.607805685e-05      4.10519868e-05
                   1                   5     0.0004214517716    -0.0002312518792    -0.0001901998924     0.0008210846032     5.607805685e-05     -4.10519868e-05
                   1                   6     0.0003840664004    -0.0002686372504    -0.0001154291499    -0.0004843226984     5.607805685e-05    -0.0001532081005
                   1                   7    -0.0003840664004     0.0002686372504     0.0001154291499    -0.0004843226984    -5.607805685e-05    -0.0001532081005
                   1                   8    -0.0004214517716     0.0002312518792     0.0001901998924     0.0008210846032    -5.607805685e-05     -4.10519868e-05
                   2                   1     0.0002190707672    -0.0001932057166    -2.586505054e-05     0.0005806574362     3.677261325e-05     0.0001673406661
                   2                   2     0.0002435858427    -0.0001686906411    -7.489520155e-05    -0.0002438955314     3.677261325e-05     9.379543958e-05
                   2                   3    -0.0002435858427     0.0001686906411     7.489520155e-05    -0.0002438955314    -3.677261325e-05     9.379543958e-05
                   2                   4    -0.0002190707672     0.0001932057166     2.586505054e-05     0.0005806574362    -3.677261325e-05     0.0001673406661
                   2                   5     0.0002190707672    -0.0001932057166    -2.586505054e-05     0.0005806574362    -3.677261325e-05    -0.0001673406661
                   2                   6     0.0002435858427    -0.0001686906411    -7.489520155e-05    -0.0002438955314    -3.677261325e-05    -9.379543958e-05
                   2                   7    -0.0002435858427     0.0001686906411     7.489520155e-05    -0.0002438955314     3.677261325e-05    -9.379543958e-05
                   2                   8    -0.0002190707672     0.0001932057166     2.586505054e-05     0.0005806574362     3.677261325e-05    -0.0001673406661
                   3                   1     7.285912206e-05    -6.597232316e-05    -6.886798893e-06     0.0003072123976     1.064201282e-05     5.908552427e-05
                   3                   2     7.995379727e-05    -5.887764795e-05    -2.107614933e-05     2.954950716e-05     1.064201282e-05     3.780149862e-05
                   3                   3    -7.995379727e-05     5.887764795e-05     2.107614933e-05     2.954950716e-05    -1.064201282e-05     3.780149862e-05
                   3                   4    -7.285912206e-05     6.597232316e-05     6.886798893e-06     0.0003072123976    -1.064201282e-05     5.908552427e-05
                   3                   5     7.285912206e-05    -6.597232316e-05    -6.886798893e-06     0.0003072123976    -1.064201282e-05    -5.908552427e-05
                   3                   6     7.995379727e-05    -5.887764795e-05    -2.107614933e-05     2.954950716e-05    -1.064201282e-05    -3.780149862e-05
                   3                   7    -7.995379727e-05     5.887764795e-05     2.107614933e-05     2.954950716e-05     1.064201282e-05    -3.780149862e-05
                   3                   8    -7.285912206e-05     6.597232316e-05     6.886798893e-06     0.0003072123976     1.064201282e-05    -5.908552427e-05

***** Plastic Strain Data ******
          Element No         Integral No          PStrain XX          PStrain YY          PStrain ZZ          PStrain XY          PStrain XZ          PStrain YZ
                   1                   1                   0                   0                   0                   0                   0                   0
                   1                   2                   0                   0                   0                   0                   0                   0
                   1                   3                   0                   0                   0                   0                   0                   0
                   1                   4                   0                   0                   0                   0                   0                   0
                   1                   5                   0                   0                   0                   0                   0                   0
                   1                   6                   0                   0                   0                   0                   0                   0
                   1                   7                   0                   0                   0                   0                   0                   0
                   1                   8                   0                   0                   0                   0                   0                   0
                   2                   1                   0                   0                   0                   0                   0                   0
                   2                   2                   0                   0                   0                   0                   0                   0
                   2                   3                   0                   0                   0                   0                   0                   0
                   2                   4                   0                   0                   0                   0                   0                   0
                   2                   5                   0                   0                   0                   0                   0                   0
                   2                   6                   0                   0                   0                   0                   0                   0
                   2                   7                   0                   0                   0                   0                   0                   0
                   2                   8                   0                   0                   0                   0                   0                   0
                   3                   1                   0                   0                   0                   0                   0                   0
                   3                   2                   0                   0                   0                   0                   0                   0
                   3                   3                   0                   0                   0                   0                   0                   0
                   3                   4                   0                   0                   0                   0                   0                   0
                   3                   5                   0                   0                   0                   0                   0                   0
                   3                   6                   0                   0                   0                   0                   0                   0
                   3                   7                   0                   0                   0                   0                   0                   0
                   3                   8                   0                   0                   0                   0                   0                   0

***** Reaction Force Data ******
              NodeNo           Magnitude             X Force             Y Force             Z Force----------------------------------------------------------------------------------------------------
                   1         21.00779889               -20.4                -3.4         3.688850006
                   2     7.989688197e-14     3.375077995e-14     6.927791674e-14     2.109423747e-14
                   3     1.333517894e-13     7.993605777e-14     1.065814104e-13     5.773159728e-15
                   4     8.967571618e-14     6.378231276e-14    -6.039613254e-14     1.805153249e-14
                   5         21.00779889               -20.4                -3.4        -3.688850006
                   6     9.328833532e-14     1.065814104e-14     9.059419881e-14     1.953992523e-14
                   7     6.573872782e-14    -8.881784197e-15     4.929390229e-14    -4.257705299e-14
                   8     5.244127175e-14     3.852473895e-14     3.108624469e-15    -3.544387006e-14
                   9         21.00779889                20.4                -3.4        -3.688850006
                  10     4.676662121e-14     4.085620731e-14     -2.26485497e-14     2.220446049e-15
                  11     8.722707969e-14    -8.171241461e-14    -4.440892099e-15     3.019806627e-14
                  12     1.209431341e-13    -6.004918784e-14    -9.681144775e-14     4.060640713e-14
                  13         21.00779889                20.4                -3.4         3.688850006
                  14     8.430358482e-14     2.486899575e-14    -7.593925488e-14     -2.68673972e-14
                  15     1.223554552e-13    -1.048050535e-13    -3.463895837e-14    -5.279110482e-14
                  16     5.165471181e-14     2.198241589e-14    -4.574118861e-14     9.629450015e-15

*Increment 35

***** Displacement Data ******
              NodeNo           Magnitude      X Displacement      Y Displacement      Z Displacement
----------------------------------------------------------------------------------------------------
                   1                   0                   0                   0                   0
                   2       0.00178106142      0.001163766353      0.001337099686    -0.0001731822344
                   3      0.004951969356      0.001898852635      0.004573052007    -5.961975229e-05
                   4       0.00904988336      0.002146388196      0.008791626171    -2.675471269e-05
                   5                   0                   0                   0                   0
                   6       0.00178106142      0.001163766353      0.001337099686     0.0001731822344
                   7      0.004951969356      0.001898852635      0.004573052007     5.961975229e-05
                   8       0.00904988336      0.002146388196      0.008791626171     2.675471269e-05
                   9                   0                   0                   0                   0
                  10       0.00178106142     -0.001163766353      0.001337099686     0.0001731822344
                  11      0.004951969356     -0.001898852635      0.004573052007     5.961975229e-05
                  12       0.00904988336     -0.002146388196      0.008791626171     2.675471269e-05
                  13                   0                   0                   0                   0
                  14       0.00178106142     -0.001163766353      0.001337099686    -0.0001731822344
                  15      0.004951969356     -0.001898852635      0.004573052007    -5.961975229e-05
                  16       0.00904988336     -0.002146388196      0.008791626171    -2.675471269e-05

***** Stress Data ******
          Element No         Integral No           Stress XX           Stress YY           Stress ZZ           Stress XY           Stress XZ           Stress YZ               Mises            YieldFlg
                   1                   1         70.08304347        -38.45478082        -31.62826265         68.26891214        -4.662598618         3.413259084         158.6449773               False
                   1                   2         63.86624531        -44.67157897        -19.19466633        -40.26891214        -4.662598618         12.73845632         122.8051459               False
                   1                   3        -63.86624531         44.67157897         19.19466633        -40.26891214         4.662598618         12.73845632         122.8051459               False
                   1                   4        -70.08304347         38.45478082         31.62826265         68.26891214         4.662598618         3.413259084         158.6449773               False
                   1                   5         70.08304347        -38.45478082        -31.62826265         68.26891214         4.662598618        -3.413259084         158.6449773               False
                   1                   6         63.86624531        -44.67157897        -19.19466633        -40.26891214         4.662598618        -12.73845632         122.8051459               False
                   1                   7        -63.86624531         44.67157897         19.19466633        -40.26891214        -4.662598618        -12.73845632         122.8051459               False
                   1                   8        -70.08304347         38.45478082         31.62826265         68.26891214        -4.662598618        -3.413259084         158.6449773               False
                   2                   1         36.42918866        -32.12809994        -4.301088722          48.2786443         3.057451441         13.91350561         105.6786798               False
                   2                   2         40.50579058        -28.05149802        -12.45429256         -20.2786443         3.057451441         7.798602725         72.92627378               False
                   2                   3        -40.50579058         28.05149802         12.45429256         -20.2786443        -3.057451441         7.798602725         72.92627378               False
                   2                   4        -36.42918866         32.12809994         4.301088722          48.2786443        -3.057451441         13.91350561         105.6786798               False
                   2                   5         36.42918866        -32.12809994        -4.301088722          48.2786443        -3.057451441        -13.91350561         105.6786798               False
                   2                   6         40.50579058        -28.05149802        -12.45429256         -20.2786443        -3.057451441        -7.798602725         72.92627378               False
                   2                   7        -40.50579058         28.05149802         12.45429256         -20.2786443         3.057451441        -7.798602725         72.92627378               False
                   2                   8        -36.42918866         32.12809994         4.301088722          48.2786443         3.057451441        -13.91350561         105.6786798               False
                   3                   1         12.11571374        -10.97051075        -1.145202983         25.54311224        0.8848279893         4.912653885         49.34353239               False
                   3                   2         13.29548439          -9.7907401        -3.504744288         2.456887756        0.8848279893         3.142997906         21.85087082               False
                   3                   3        -13.29548439           9.7907401         3.504744288         2.456887756       -0.8848279893         3.142997906         21.85087082               False
                   3                   4        -12.11571374         10.97051075         1.145202983         25.54311224       -0.8848279893         4.912653885         49.34353239               False
                   3                   5         12.11571374        -10.97051075        -1.145202983         25.54311224       -0.8848279893        -4.912653885         49.34353239               False
                   3                   6         13.29548439          -9.7907401        -3.504744288         2.456887756       -0.8848279893        -3.142997906         21.85087082               False
                   3                   7        -13.29548439           9.7907401         3.504744288         2.456887756        0.8848279893        -3.142997906         21.85087082               False
                   3                   8        -12.11571374         10.97051075         1.145202983         25.54311224        0.8848279893        -4.912653885         49.34353239               False

***** Strain Data ******
          Element No         Integral No           Strain XX           Strain YY           Strain ZZ           Strain XY           Strain XZ           Strain YZ
                   1                   1     0.0004338474119    -0.0002380534051    -0.0001957940069     0.0008452341503    -5.772741146e-05     4.225939818e-05
                   1                   2      0.000395362471     -0.000276538346    -0.0001188241249    -0.0004985674837    -5.772741146e-05     0.0001577142211
                   1                   3     -0.000395362471      0.000276538346     0.0001188241249    -0.0004985674837     5.772741146e-05     0.0001577142211
                   1                   4    -0.0004338474119     0.0002380534051     0.0001957940069     0.0008452341503     5.772741146e-05     4.225939818e-05
                   1                   5     0.0004338474119    -0.0002380534051    -0.0001957940069     0.0008452341503     5.772741146e-05    -4.225939818e-05
                   1                   6      0.000395362471     -0.000276538346    -0.0001188241249    -0.0004985674837     5.772741146e-05    -0.0001577142211
                   1                   7     -0.000395362471      0.000276538346     0.0001188241249    -0.0004985674837    -5.772741146e-05    -0.0001577142211
                   1                   8    -0.0004338474119     0.0002380534051     0.0001957940069     0.0008452341503    -5.772741146e-05    -4.225939818e-05
                   2                   1      0.000225514025    -0.0001988882377    -2.662578733e-05     0.0005977355961      3.78541607e-05     0.0001722624504
                   2                   2     0.0002507501322    -0.0001736521306    -7.709800159e-05    -0.0002510689294      3.78541607e-05     9.655412898e-05
                   2                   3    -0.0002507501322     0.0001736521306     7.709800159e-05    -0.0002510689294     -3.78541607e-05     9.655412898e-05
                   2                   4     -0.000225514025     0.0001988882377     2.662578733e-05     0.0005977355961     -3.78541607e-05     0.0001722624504
                   2                   5      0.000225514025    -0.0001988882377    -2.662578733e-05     0.0005977355961     -3.78541607e-05    -0.0001722624504
                   2                   6     0.0002507501322    -0.0001736521306    -7.709800159e-05    -0.0002510689294     -3.78541607e-05    -9.655412898e-05
                   2                   7    -0.0002507501322     0.0001736521306     7.709800159e-05    -0.0002510689294      3.78541607e-05    -9.655412898e-05
                   2                   8     -0.000225514025     0.0001988882377     2.662578733e-05     0.0005977355961      3.78541607e-05    -0.0001722624504
                   3                   1     7.500203741e-05    -6.791268561e-05    -7.089351801e-06     0.0003162480564      1.09550132e-05     6.082333381e-05
                   3                   2     8.230537955e-05    -6.060934348e-05    -2.169603607e-05     3.041861031e-05      1.09550132e-05     3.891330741e-05
                   3                   3    -8.230537955e-05     6.060934348e-05     2.169603607e-05     3.041861031e-05     -1.09550132e-05     3.891330741e-05
                   3                   4    -7.500203741e-05     6.791268561e-05     7.089351801e-06     0.0003162480564     -1.09550132e-05     6.082333381e-05
                   3                   5     7.500203741e-05    -6.791268561e-05    -7.089351801e-06     0.0003162480564     -1.09550132e-05    -6.082333381e-05
                   3                   6     8.230537955e-05    -6.060934348e-05    -2.169603607e-05     3.041861031e-05     -1.09550132e-05    -3.891330741e-05
                   3                   7    -8.230537955e-05     6.060934348e-05     2.169603607e-05     3.041861031e-05      1.09550132e-05    -3.891330741e-05
                   3                   8    -7.500203741e-05     6.791268561e-05     7.089351801e-06     0.0003162480564      1.09550132e-05    -6.082333381e-05

***** Plastic Strain Data ******
          Element No         Integral No          PStrain XX          PStrain YY          PStrain ZZ          PStrain XY          PStrain XZ          PStrain YZ
                   1                   1                   0                   0                   0                   0                   0                   0
                   1                   2                   0                   0                   0                   0                   0                   0
                   1                   3                   0                   0                   0                   0                   0                   0
                   1                   4                   0                   0                   0                   0                   0                   0
                   1                   5                   0                   0                   0                   0                   0                   0
                   1                   6                   0                   0                   0                   0                   0                   0
                   1                   7                   0                   0                   0                   0                   0                   0
                   1                   8                   0                   0                   0                   0                   0                   0
                   2                   1                   0                   0                   0                   0                   0                   0
                   2                   2                   0                   0                   0                   0                   0                   0
                   2                   3                   0                   0                   0                   0                   0                   0
                   2                   4                   0                   0                   0                   0                   0                   0
                   2                   5                   0                   0                   0                   0                   0                   0
                   2                   6                   0                   0                   0                   0                   0                   0
                   2                   7                   0                   0                   0                   0                   0                   0
                   2                   8                   0                   0                   0                   0                   0                   0
                   3                   1                   0                   0                   0                   0                   0                   0
                   3                   2                   0                   0                   0                   0                   0                   0
                   3                   3                   0                   0                   0                   0                   0                   0
                   3                   4                   0                   0                   0                   0                   0                   0
                   3                   5                   0                   0                   0                   0                   0                   0
                   3                   6                   0                   0                   0                   0                   0                   0
                   3                   7                   0                   0                   0                   0                   0                   0
                   3                   8                   0                   0                   0                   0                   0                   0

***** Reaction Force Data ******
              NodeNo           Magnitude             X Force             Y Force             Z Force----------------------------------------------------------------------------------------------------
                   1         21.62567533                 -21                -3.5         3.797345594
                   2     7.936068016e-14     5.329070518e-14     5.639932965e-14     1.665334537e-14
                   3     1.133500329e-13     6.927791674e-14     8.970602039e-14     1.276756478e-15
                   4     9.173165627e-14     7.513434319e-14    -4.440892099e-14     2.823782874e-14
                   5         21.62567533                 -21                -3.5        -3.797345594
                   6     9.647269541e-14     3.019806627e-14     8.970602039e-14     1.865174681e-14
                   7     6.322162065e-14    -8.881784197e-15     5.018208071e-14    -3.741451593e-14
                   8     7.774955037e-14     7.127631818e-14    -2.664535259e-14    -1.595945598e-14
                   9         21.62567533                  21                -3.5        -3.797345594
                  10     4.882760357e-14     4.796163466e-14    -5.773159728e-15    -7.105427358e-15
                  11     1.016130676e-13    -1.003641614e-13     1.243449788e-14     9.880984919e-15
                  12      1.06899235e-13    -5.426215033e-14    -9.148237723e-14     1.067895772e-14
                  13         21.62567533                  21                -3.5         3.797345594
                  14     6.863728816e-14     2.842170943e-14    -6.039613254e-14    -1.598721155e-14
                  15     1.465136996e-13    -1.403321903e-13    -2.353672812e-14    -3.491651412e-14
                  16      7.33139635e-14     2.498001805e-14     -6.75015599e-14     1.394544202e-14

*Increment 36

***** Displacement Data ******
              NodeNo           Magnitude      X Displacement      Y Displacement      Z Displacement
----------------------------------------------------------------------------------------------------
                   1                   0                   0                   0                   0
                   2      0.001831948889       0.00119701682      0.001375302534    -0.0001781302982
                   3      0.005093454194      0.001953105567      0.004703710635    -6.132317379e-05
                   4      0.009308451456      0.002207713573       0.00904281549    -2.751913305e-05
                   5                   0                   0                   0                   0
                   6      0.001831948889       0.00119701682      0.001375302534     0.0001781302982
                   7      0.005093454194      0.001953105567      0.004703710635     6.132317379e-05
                   8      0.009308451456      0.002207713573       0.00904281549     2.751913305e-05
                   9                   0                   0                   0                   0
                  10      0.001831948889      -0.00119701682      0.001375302534     0.0001781302982
                  11      0.005093454194     -0.001953105567      0.004703710635     6.132317379e-05
                  12      0.009308451456     -0.002207713573       0.00904281549     2.751913305e-05
                  13                   0                   0                   0                   0
                  14      0.001831948889      -0.00119701682      0.001375302534    -0.0001781302982
                  15      0.005093454194     -0.001953105567      0.004703710635    -6.132317379e-05
                  16      0.009308451456     -0.002207713573       0.00904281549    -2.751913305e-05

***** Stress Data ******
          Element No         Integral No           Stress XX           Stress YY           Stress ZZ           Stress XY           Stress XZ           Stress YZ               Mises            YieldFlg
                   1                   1         72.08541614        -39.55348884         -32.5319273         70.21945249        -4.795815722         3.510780772         163.1776909               False
                   1                   2         65.69099517         -45.9479098        -19.74308537        -41.41945249        -4.795815722         13.10241222         126.3138643               False
                   1                   3        -65.69099517          45.9479098         19.74308537        -41.41945249         4.795815722         13.10241222         126.3138643               False
                   1                   4        -72.08541614         39.55348884          32.5319273         70.21945249         4.795815722         3.510780772         163.1776909               False
                   1                   5         72.08541614        -39.55348884         -32.5319273         70.21945249         4.795815722        -3.510780772         163.1776909               False
                   1                   6         65.69099517         -45.9479098        -19.74308537        -41.41945249         4.795815722        -13.10241222         126.3138643               False
                   1                   7        -65.69099517          45.9479098         19.74308537        -41.41945249        -4.795815722        -13.10241222         126.3138643               False
                   1                   8        -72.08541614         39.55348884          32.5319273         70.21945249        -4.795815722        -3.510780772         163.1776909               False
                   2                   1         37.47002262        -33.04604565        -4.423976971         49.65803414         3.144807197         14.31103434         108.6980706               False
                   2                   2         41.66309888        -28.85296939         -12.8101295        -20.85803414         3.144807197         8.021419946          75.0098816               False
                   2                   3        -41.66309888         28.85296939          12.8101295        -20.85803414        -3.144807197         8.021419946          75.0098816               False
                   2                   4        -37.47002262         33.04604565         4.423976971         49.65803414        -3.144807197         14.31103434         108.6980706               False
                   2                   5         37.47002262        -33.04604565        -4.423976971         49.65803414        -3.144807197        -14.31103434         108.6980706               False
                   2                   6         41.66309888        -28.85296939         -12.8101295        -20.85803414        -3.144807197        -8.021419946          75.0098816               False
                   2                   7        -41.66309888         28.85296939          12.8101295        -20.85803414         3.144807197        -8.021419946          75.0098816               False
                   2                   8        -37.47002262         33.04604565         4.423976971         49.65803414         3.144807197        -14.31103434         108.6980706               False
                   3                   1         12.46187699        -11.28395392        -1.177923069         26.27291545         0.910108789         5.053015424          50.7533476               False
                   3                   2         13.67535537        -10.07047553        -3.604879839         2.527084549         0.910108789         3.232797846         22.47518141               False
                   3                   3        -13.67535537         10.07047553         3.604879839         2.527084549        -0.910108789         3.232797846         22.47518141               False
                   3                   4        -12.46187699         11.28395392         1.177923069         26.27291545        -0.910108789         5.053015424          50.7533476               False
                   3                   5         12.46187699        -11.28395392        -1.177923069         26.27291545        -0.910108789        -5.053015424          50.7533476               False
                   3                   6         13.67535537        -10.07047553        -3.604879839         2.527084549        -0.910108789        -3.232797846         22.47518141               False
                   3                   7        -13.67535537         10.07047553         3.604879839         2.527084549         0.910108789        -3.232797846         22.47518141               False
                   3                   8        -12.46187699         11.28395392         1.177923069         26.27291545         0.910108789        -5.053015424          50.7533476               False

***** Strain Data ******
          Element No         Integral No           Strain XX           Strain YY           Strain ZZ           Strain XY           Strain XZ           Strain YZ
                   1                   1     0.0004462430523    -0.0002448549309    -0.0002013881214     0.0008693836975    -5.937676608e-05     4.346680956e-05
                   1                   2     0.0004066585416    -0.0002844394416    -0.0001222190999    -0.0005128122689    -5.937676608e-05     0.0001622203417
                   1                   3    -0.0004066585416     0.0002844394416     0.0001222190999    -0.0005128122689     5.937676608e-05     0.0001622203417
                   1                   4    -0.0004462430523     0.0002448549309     0.0002013881214     0.0008693836975     5.937676608e-05     4.346680956e-05
                   1                   5     0.0004462430523    -0.0002448549309    -0.0002013881214     0.0008693836975     5.937676608e-05    -4.346680956e-05
                   1                   6     0.0004066585416    -0.0002844394416    -0.0001222190999    -0.0005128122689     5.937676608e-05    -0.0001622203417
                   1                   7    -0.0004066585416     0.0002844394416     0.0001222190999    -0.0005128122689    -5.937676608e-05    -0.0001622203417
                   1                   8    -0.0004462430523     0.0002448549309     0.0002013881214     0.0008693836975    -5.937676608e-05    -4.346680956e-05
                   2                   1     0.0002319572829    -0.0002045707588    -2.738652411e-05      0.000614813756     3.893570815e-05     0.0001771842347
                   2                   2     0.0002579144217      -0.00017861362    -7.930080164e-05    -0.0002582423274     3.893570815e-05     9.931281838e-05
                   2                   3    -0.0002579144217       0.00017861362     7.930080164e-05    -0.0002582423274    -3.893570815e-05     9.931281838e-05
                   2                   4    -0.0002319572829     0.0002045707588     2.738652411e-05      0.000614813756    -3.893570815e-05     0.0001771842347
                   2                   5     0.0002319572829    -0.0002045707588    -2.738652411e-05      0.000614813756    -3.893570815e-05    -0.0001771842347
                   2                   6     0.0002579144217      -0.00017861362    -7.930080164e-05    -0.0002582423274    -3.893570815e-05    -9.931281838e-05
                   2                   7    -0.0002579144217       0.00017861362     7.930080164e-05    -0.0002582423274     3.893570815e-05    -9.931281838e-05
                   2                   8    -0.0002319572829     0.0002045707588     2.738652411e-05      0.000614813756     3.893570815e-05    -0.0001771842347
                   3                   1     7.714495277e-05    -6.985304806e-05     -7.29190471e-06     0.0003252837151     1.126801358e-05     6.256114335e-05
                   3                   2     8.465696182e-05      -6.2341039e-05    -2.231592281e-05     3.128771346e-05     1.126801358e-05     4.002511619e-05
                   3                   3    -8.465696182e-05       6.2341039e-05     2.231592281e-05     3.128771346e-05    -1.126801358e-05     4.002511619e-05
                   3                   4    -7.714495277e-05     6.985304806e-05      7.29190471e-06     0.0003252837151    -1.126801358e-05     6.256114335e-05
                   3                   5     7.714495277e-05    -6.985304806e-05     -7.29190471e-06     0.0003252837151    -1.126801358e-05    -6.256114335e-05
                   3                   6     8.465696182e-05      -6.2341039e-05    -2.231592281e-05     3.128771346e-05    -1.126801358e-05    -4.002511619e-05
                   3                   7    -8.465696182e-05       6.2341039e-05     2.231592281e-05     3.128771346e-05     1.126801358e-05    -4.002511619e-05
                   3                   8    -7.714495277e-05     6.985304806e-05      7.29190471e-06     0.0003252837151     1.126801358e-05    -6.256114335e-05

***** Plastic Strain Data ******
          Element No         Integral No          PStrain XX          PStrain YY          PStrain ZZ          PStrain XY          PStrain XZ          PStrain YZ
                   1                   1                   0                   0                   0                   0                   0                   0
                   1                   2                   0                   0                   0                   0                   0                   0
                   1                   3                   0                   0                   0                   0                   0                   0
                   1                   4                   0                   0                   0                   0                   0                   0
                   1                   5                   0                   0                   0                   0                   0                   0
                   1                   6                   0                   0                   0                   0                   0                   0
                   1                   7                   0                   0                   0                   0                   0                   0
                   1                   8                   0                   0                   0                   0                   0                   0
                   2                   1                   0                   0                   0                   0                   0                   0
                   2                   2                   0                   0                   0                   0                   0                   0
                   2                   3                   0                   0                   0                   0                   0                   0
                   2                   4                   0                   0                   0                   0                   0                   0
                   2                   5                   0                   0                   0                   0                   0                   0
                   2                   6                   0                   0                   0                   0                   0                   0
                   2                   7                   0                   0                   0                   0                   0                   0
                   2                   8                   0                   0                   0                   0                   0                   0
                   3                   1                   0                   0                   0                   0                   0                   0
                   3                   2                   0                   0                   0                   0                   0                   0
                   3                   3                   0                   0                   0                   0                   0                   0
                   3                   4                   0                   0                   0                   0                   0                   0
                   3                   5                   0                   0                   0                   0                   0                   0
                   3                   6                   0                   0                   0                   0                   0                   0
                   3                   7                   0                   0                   0                   0                   0                   0
                   3                   8                   0                   0                   0                   0                   0                   0

***** Reaction Force Data ******
              NodeNo           Magnitude             X Force             Y Force             Z Force----------------------------------------------------------------------------------------------------
                   1         22.24355177               -21.6                -3.6         3.905841183
                   2     9.014464035e-14     6.927791674e-14     5.684341886e-14     9.769962617e-15
                   3     1.581888216e-13     9.325873407e-14     1.265654248e-13     1.754152379e-14
                   4      8.44725253e-14     6.389333507e-14    -4.440892099e-15     5.507747036e-14
                   5         22.24355177               -21.6                -3.6        -3.905841183
                   6     1.053615104e-13     4.618527782e-14     9.237055565e-14     2.087219286e-14
                   7     7.828080121e-14     1.598721155e-14     6.172840017e-14    -4.540812171e-14
                   8     6.526940636e-14     5.884182031e-14     -2.26485497e-14    -1.687538997e-14
                   9         22.24355177                21.6                -3.6        -3.905841183
                  10     6.258349938e-14     6.217248938e-14    -7.105427358e-15    -8.881784197e-16
                  11     1.137727283e-13     -1.10134124e-13    -7.105427358e-15     2.764455331e-14
                  12     1.332420999e-13    -6.394884622e-14     -1.16351373e-13     1.124100812e-14
                  13         22.24355177                21.6                -3.6         3.905841183
                  14     6.772506052e-14     3.730349363e-14    -5.373479439e-14    -1.754152379e-14
                  15     1.638817051e-13    -1.465494393e-13    -3.996802889e-14    -6.150635556e-14
                  16     1.100977514e-13     1.287858709e-14    -1.088018564e-13    -1.085416479e-14

*Increment 37

***** Displacement Data ******
              NodeNo           Magnitude      X Displacement      Y Displacement      Z Displacement
----------------------------------------------------------------------------------------------------
                   1                   0                   0                   0                   0
                   2      0.001882836358      0.001230267287      0.001413505382    -0.0001830783621
                   3      0.005234939033      0.002007358499      0.004834369264    -6.302659528e-05
                   4      0.009567019552       0.00226903895      0.009294004809    -2.828355341e-05
                   5                   0                   0                   0                   0
                   6      0.001882836358      0.001230267287      0.001413505382     0.0001830783621
                   7      0.005234939033      0.002007358499      0.004834369264     6.302659528e-05
                   8      0.009567019552       0.00226903895      0.009294004809     2.828355341e-05
                   9                   0                   0                   0                   0
                  10      0.001882836358     -0.001230267287      0.001413505382     0.0001830783621
                  11      0.005234939033     -0.002007358499      0.004834369264     6.302659528e-05
                  12      0.009567019552      -0.00226903895      0.009294004809     2.828355341e-05
                  13                   0                   0                   0                   0
                  14      0.001882836358     -0.001230267287      0.001413505382    -0.0001830783621
                  15      0.005234939033     -0.002007358499      0.004834369264    -6.302659528e-05
                  16      0.009567019552      -0.00226903895      0.009294004809    -2.828355341e-05

***** Stress Data ******
          Element No         Integral No           Stress XX           Stress YY           Stress ZZ           Stress XY           Stress XZ           Stress YZ               Mises            YieldFlg
                   1                   1         74.08778881        -40.65219686        -33.43559194         72.16999284        -4.929032825          3.60830246         167.7104045               False
                   1                   2         67.51574504        -47.22424063        -20.29150441        -42.56999284        -4.929032825         13.46636811         129.8225828               False
                   1                   3        -67.51574504         47.22424063         20.29150441        -42.56999284         4.929032825         13.46636811         129.8225828               False
                   1                   4        -74.08778881         40.65219686         33.43559194         72.16999284         4.929032825          3.60830246         167.7104045               False
                   1                   5         74.08778881        -40.65219686        -33.43559194         72.16999284         4.929032825         -3.60830246         167.7104045               False
                   1                   6         67.51574504        -47.22424063        -20.29150441        -42.56999284         4.929032825        -13.46636811         129.8225828               False
                   1                   7        -67.51574504         47.22424063         20.29150441        -42.56999284        -4.929032825        -13.46636811         129.8225828               False
                   1                   8        -74.08778881         40.65219686         33.43559194         72.16999284        -4.929032825         -3.60830246         167.7104045               False
                   2                   1         38.51085658        -33.96399136         -4.54686522         51.03742397         3.232162952         14.70856307         111.7174615               False
                   2                   2         42.82040719        -29.65444076        -13.16596643        -21.43742397         3.232162952         8.244237167         77.09348942               False
                   2                   3        -42.82040719         29.65444076         13.16596643        -21.43742397        -3.232162952         8.244237167         77.09348942               False
                   2                   4        -38.51085658         33.96399136          4.54686522         51.03742397        -3.232162952         14.70856307         111.7174615               False
                   2                   5         38.51085658        -33.96399136         -4.54686522         51.03742397        -3.232162952        -14.70856307         111.7174615               False
                   2                   6         42.82040719        -29.65444076        -13.16596643        -21.43742397        -3.232162952        -8.244237167         77.09348942               False
                   2                   7        -42.82040719         29.65444076         13.16596643        -21.43742397         3.232162952        -8.244237167         77.09348942               False
                   2                   8        -38.51085658         33.96399136          4.54686522         51.03742397         3.232162952        -14.70856307         111.7174615               False
                   3                   1         12.80804023        -11.59739708        -1.210643154         27.00271866        0.9353895887         5.193376964         52.16316281               False
                   3                   2         14.05522635        -10.35021096         -3.70501539         2.597281342        0.9353895887         3.322597786         23.09949201               False
                   3                   3        -14.05522635         10.35021096          3.70501539         2.597281342       -0.9353895887         3.322597786         23.09949201               False
                   3                   4        -12.80804023         11.59739708         1.210643154         27.00271866       -0.9353895887         5.193376964         52.16316281               False
                   3                   5         12.80804023        -11.59739708        -1.210643154         27.00271866       -0.9353895887        -5.193376964         52.16316281               False
                   3                   6         14.05522635        -10.35021096         -3.70501539         2.597281342       -0.9353895887        -3.322597786         23.09949201               False
                   3                   7        -14.05522635         10.35021096          3.70501539         2.597281342        0.9353895887        -3.322597786         23.09949201               False
                   3                   8        -12.80804023         11.59739708         1.210643154         27.00271866        0.9353895887        -5.193376964         52.16316281               False

***** Strain Data ******
          Element No         Integral No           Strain XX           Strain YY           Strain ZZ           Strain XY           Strain XZ           Strain YZ
                   1                   1     0.0004586386926    -0.0002516564568    -0.0002069822358     0.0008935332446    -6.102612069e-05     4.467422093e-05
                   1                   2     0.0004179546122    -0.0002923405372    -0.0001256140749    -0.0005270570542    -6.102612069e-05     0.0001667264623
                   1                   3    -0.0004179546122     0.0002923405372     0.0001256140749    -0.0005270570542     6.102612069e-05     0.0001667264623
                   1                   4    -0.0004586386926     0.0002516564568     0.0002069822358     0.0008935332446     6.102612069e-05     4.467422093e-05
                   1                   5     0.0004586386926    -0.0002516564568    -0.0002069822358     0.0008935332446     6.102612069e-05    -4.467422093e-05
                   1                   6     0.0004179546122    -0.0002923405372    -0.0001256140749    -0.0005270570542     6.102612069e-05    -0.0001667264623
                   1                   7    -0.0004179546122     0.0002923405372     0.0001256140749    -0.0005270570542    -6.102612069e-05    -0.0001667264623
                   1                   8    -0.0004586386926     0.0002516564568     0.0002069822358     0.0008935332446    -6.102612069e-05    -4.467422093e-05
                   2                   1     0.0002384005407    -0.0002102532799    -2.814726089e-05     0.0006318919158      4.00172556e-05      0.000182106019
                   2                   2     0.0002650787111    -0.0001835751095    -8.150360168e-05    -0.0002654157254      4.00172556e-05     0.0001020715078
                   2                   3    -0.0002650787111     0.0001835751095     8.150360168e-05    -0.0002654157254     -4.00172556e-05     0.0001020715078
                   2                   4    -0.0002384005407     0.0002102532799     2.814726089e-05     0.0006318919158     -4.00172556e-05      0.000182106019
                   2                   5     0.0002384005407    -0.0002102532799    -2.814726089e-05     0.0006318919158     -4.00172556e-05     -0.000182106019
                   2                   6     0.0002650787111    -0.0001835751095    -8.150360168e-05    -0.0002654157254     -4.00172556e-05    -0.0001020715078
                   2                   7    -0.0002650787111     0.0001835751095     8.150360168e-05    -0.0002654157254      4.00172556e-05    -0.0001020715078
                   2                   8    -0.0002384005407     0.0002102532799     2.814726089e-05     0.0006318919158      4.00172556e-05     -0.000182106019
                   3                   1     7.928786812e-05     -7.17934105e-05    -7.494457619e-06     0.0003343193739     1.158101396e-05     6.429895288e-05
                   3                   2     8.700854409e-05    -6.407273453e-05    -2.293580956e-05     3.215681662e-05     1.158101396e-05     4.113692497e-05
                   3                   3    -8.700854409e-05     6.407273453e-05     2.293580956e-05     3.215681662e-05    -1.158101396e-05     4.113692497e-05
                   3                   4    -7.928786812e-05      7.17934105e-05     7.494457619e-06     0.0003343193739    -1.158101396e-05     6.429895288e-05
                   3                   5     7.928786812e-05     -7.17934105e-05    -7.494457619e-06     0.0003343193739    -1.158101396e-05    -6.429895288e-05
                   3                   6     8.700854409e-05    -6.407273453e-05    -2.293580956e-05     3.215681662e-05    -1.158101396e-05    -4.113692497e-05
                   3                   7    -8.700854409e-05     6.407273453e-05     2.293580956e-05     3.215681662e-05     1.158101396e-05    -4.113692497e-05
                   3                   8    -7.928786812e-05      7.17934105e-05     7.494457619e-06     0.0003343193739     1.158101396e-05    -6.429895288e-05

***** Plastic Strain Data ******
          Element No         Integral No          PStrain XX          PStrain YY          PStrain ZZ          PStrain XY          PStrain XZ          PStrain YZ
                   1                   1                   0                   0                   0                   0                   0                   0
                   1                   2                   0                   0                   0                   0                   0                   0
                   1                   3                   0                   0                   0                   0                   0                   0
                   1                   4                   0                   0                   0                   0                   0                   0
                   1                   5                   0                   0                   0                   0                   0                   0
                   1                   6                   0                   0                   0                   0                   0                   0
                   1                   7                   0                   0                   0                   0                   0                   0
                   1                   8                   0                   0                   0                   0                   0                   0
                   2                   1                   0                   0                   0                   0                   0                   0
                   2                   2                   0                   0                   0                   0                   0                   0
                   2                   3                   0                   0                   0                   0                   0                   0
                   2                   4                   0                   0                   0                   0                   0                   0
                   2                   5                   0                   0                   0                   0                   0                   0
                   2                   6                   0                   0                   0                   0                   0                   0
                   2                   7                   0                   0                   0                   0                   0                   0
                   2                   8                   0                   0                   0                   0                   0                   0
                   3                   1                   0                   0                   0                   0                   0                   0
                   3                   2                   0                   0                   0                   0                   0                   0
                   3                   3                   0                   0                   0                   0                   0                   0
                   3                   4                   0                   0                   0                   0                   0                   0
                   3                   5                   0                   0                   0                   0                   0                   0
                   3                   6                   0                   0                   0                   0                   0                   0
                   3                   7                   0                   0                   0                   0                   0                   0
                   3                   8                   0                   0                   0                   0                   0                   0

***** Reaction Force Data ******
              NodeNo           Magnitude             X Force             Y Force             Z Force----------------------------------------------------------------------------------------------------
                   1         22.86142821               -22.2                -3.7         4.014336771
                   2     1.073199256e-13     8.348877145e-14     6.705747069e-14     7.105427358e-15
                   3     1.285353005e-13     7.460698725e-14     1.016964291e-13     2.475797345e-14
                   4     9.859281627e-14      4.41591208e-14     5.551115123e-14     6.847647449e-14
                   5         22.86142821               -22.2                -3.7        -4.014336771
                   6      1.16755141e-13     5.329070518e-14     1.008082506e-13     2.509104036e-14
                   7     8.076145676e-14     1.154631946e-14     5.373479439e-14    -5.917488721e-14
                   8     4.837752242e-14      4.06341627e-14    -2.664535259e-15    -2.611799665e-14
                   9         22.86142821                22.2                -3.7        -4.014336771
                  10     4.350317937e-14     4.263256415e-14     7.993605777e-15    -3.330669074e-15
                  11     1.171024281e-13    -9.503509091e-14    -5.684341886e-14     3.808064974e-14
                  12      1.35614822e-13     -4.06341627e-14    -1.287858709e-13     1.242755898e-14
                  13         22.86142821                22.2                -3.7         4.014336771
                  14     5.476720165e-14     3.019806627e-14    -4.263256415e-14    -1.643130076e-14
                  15     1.662360925e-13    -1.341149414e-13    -7.238654121e-14    -6.639133687e-14
                  16      1.08255075e-13     2.375877273e-14    -1.048050535e-13    -1.306073305e-14

*Increment 38

***** Displacement Data ******
              NodeNo           Magnitude      X Displacement      Y Displacement      Z Displacement
----------------------------------------------------------------------------------------------------
                   1                   0                   0                   0                   0
                   2      0.001933723827      0.001263517754      0.001451708231    -0.0001880264259
                   3      0.005376423872      0.002061611432      0.004965027893    -6.473001677e-05
                   4      0.009825587648      0.002330364327      0.009545194128    -2.904797378e-05
                   5                   0                   0                   0                   0
                   6      0.001933723827      0.001263517754      0.001451708231     0.0001880264259
                   7      0.005376423872      0.002061611432      0.004965027893     6.473001677e-05
                   8      0.009825587648      0.002330364327      0.009545194128     2.904797378e-05
                   9                   0                   0                   0                   0
                  10      0.001933723827     -0.001263517754      0.001451708231     0.0001880264259
                  11      0.005376423872     -0.002061611432      0.004965027893     6.473001677e-05
                  12      0.009825587648     -0.002330364327      0.009545194128     2.904797378e-05
                  13                   0                   0                   0                   0
                  14      0.001933723827     -0.001263517754      0.001451708231    -0.0001880264259
                  15      0.005376423872     -0.002061611432      0.004965027893    -6.473001677e-05
                  16      0.009825587648     -0.002330364327      0.009545194128    -2.904797378e-05

***** Stress Data ******
          Element No         Integral No           Stress XX           Stress YY           Stress ZZ           Stress XY           Stress XZ           Stress YZ               Mises            YieldFlg
                   1                   1         76.09016148        -41.75090489        -34.33925659         74.12053318        -5.062249928         3.705824148         172.2431182               False
                   1                   2         69.34049491        -48.50057146        -20.83992345        -43.72053318        -5.062249928         13.83032401         133.3313012               False
                   1                   3        -69.34049491         48.50057146         20.83992345        -43.72053318         5.062249928         13.83032401         133.3313012               False
                   1                   4        -76.09016148         41.75090489         34.33925659         74.12053318         5.062249928         3.705824148         172.2431182               False
                   1                   5         76.09016148        -41.75090489        -34.33925659         74.12053318         5.062249928        -3.705824148         172.2431182               False
                   1                   6         69.34049491        -48.50057146        -20.83992345        -43.72053318         5.062249928        -13.83032401         133.3313012               False
                   1                   7        -69.34049491         48.50057146         20.83992345        -43.72053318        -5.062249928        -13.83032401         133.3313012               False
                   1                   8        -76.09016148         41.75090489         34.33925659         74.12053318        -5.062249928        -3.705824148         172.2431182               False
                   2                   1         39.55169054        -34.88193707        -4.669753469         52.41681381         3.319518708          15.1060918         114.7368523               False
                   2                   2         43.97771549        -30.45591213        -13.52180336        -22.01681381         3.319518708         8.467054387         79.17709725               False
                   2                   3        -43.97771549         30.45591213         13.52180336        -22.01681381        -3.319518708         8.467054387         79.17709725               False
                   2                   4        -39.55169054         34.88193707         4.669753469         52.41681381        -3.319518708          15.1060918         114.7368523               False
                   2                   5         39.55169054        -34.88193707        -4.669753469         52.41681381        -3.319518708         -15.1060918         114.7368523               False
                   2                   6         43.97771549        -30.45591213        -13.52180336        -22.01681381        -3.319518708        -8.467054387         79.17709725               False
                   2                   7        -43.97771549         30.45591213         13.52180336        -22.01681381         3.319518708        -8.467054387         79.17709725               False
                   2                   8        -39.55169054         34.88193707         4.669753469         52.41681381         3.319518708         -15.1060918         114.7368523               False
                   3                   1         13.15420348        -11.91084025        -1.243363239         27.73252186        0.9606703884         5.333738503         53.57297802               False
                   3                   2         14.43509734        -10.62994639        -3.805150941         2.667478135        0.9606703884         3.412397726          23.7238026               False
                   3                   3        -14.43509734         10.62994639         3.805150941         2.667478135       -0.9606703884         3.412397726          23.7238026               False
                   3                   4        -13.15420348         11.91084025         1.243363239         27.73252186       -0.9606703884         5.333738503         53.57297802               False
                   3                   5         13.15420348        -11.91084025        -1.243363239         27.73252186       -0.9606703884        -5.333738503         53.57297802               False
                   3                   6         14.43509734        -10.62994639        -3.805150941         2.667478135       -0.9606703884        -3.412397726          23.7238026               False
                   3                   7        -14.43509734         10.62994639         3.805150941         2.667478135        0.9606703884        -3.412397726          23.7238026               False
                   3                   8        -13.15420348         11.91084025         1.243363239         27.73252186        0.9606703884        -5.333738503         53.57297802               False

***** Strain Data ******
          Element No         Integral No           Strain XX           Strain YY           Strain ZZ           Strain XY           Strain XZ           Strain YZ
                   1                   1      0.000471034333    -0.0002584579826    -0.0002125763503     0.0009176827918     -6.26754753e-05     4.588163231e-05
                   1                   2     0.0004292506828    -0.0003002416328    -0.0001290090499    -0.0005413018394     -6.26754753e-05     0.0001712325829
                   1                   3    -0.0004292506828     0.0003002416328     0.0001290090499    -0.0005413018394      6.26754753e-05     0.0001712325829
                   1                   4     -0.000471034333     0.0002584579826     0.0002125763503     0.0009176827918      6.26754753e-05     4.588163231e-05
                   1                   5      0.000471034333    -0.0002584579826    -0.0002125763503     0.0009176827918      6.26754753e-05    -4.588163231e-05
                   1                   6     0.0004292506828    -0.0003002416328    -0.0001290090499    -0.0005413018394      6.26754753e-05    -0.0001712325829
                   1                   7    -0.0004292506828     0.0003002416328     0.0001290090499    -0.0005413018394     -6.26754753e-05    -0.0001712325829
                   1                   8     -0.000471034333     0.0002584579826     0.0002125763503     0.0009176827918     -6.26754753e-05    -4.588163231e-05
                   2                   1     0.0002448437986    -0.0002159358009    -2.890799767e-05     0.0006489700757     4.109880305e-05     0.0001870278033
                   2                   2     0.0002722430006    -0.0001885365989    -8.370640173e-05    -0.0002725891234     4.109880305e-05     0.0001048301972
                   2                   3    -0.0002722430006     0.0001885365989     8.370640173e-05    -0.0002725891234    -4.109880305e-05     0.0001048301972
                   2                   4    -0.0002448437986     0.0002159358009     2.890799767e-05     0.0006489700757    -4.109880305e-05     0.0001870278033
                   2                   5     0.0002448437986    -0.0002159358009    -2.890799767e-05     0.0006489700757    -4.109880305e-05    -0.0001870278033
                   2                   6     0.0002722430006    -0.0001885365989    -8.370640173e-05    -0.0002725891234    -4.109880305e-05    -0.0001048301972
                   2                   7    -0.0002722430006     0.0001885365989     8.370640173e-05    -0.0002725891234     4.109880305e-05    -0.0001048301972
                   2                   8    -0.0002448437986     0.0002159358009     2.890799767e-05     0.0006489700757     4.109880305e-05    -0.0001870278033
                   3                   1     8.143078348e-05    -7.373377295e-05    -7.697010527e-06     0.0003433550326     1.189401433e-05     6.603676242e-05
                   3                   2     8.936012636e-05    -6.580443006e-05     -2.35556963e-05     3.302591977e-05     1.189401433e-05     4.224873375e-05
                   3                   3    -8.936012636e-05     6.580443006e-05      2.35556963e-05     3.302591977e-05    -1.189401433e-05     4.224873375e-05
                   3                   4    -8.143078348e-05     7.373377295e-05     7.697010527e-06     0.0003433550326    -1.189401433e-05     6.603676242e-05
                   3                   5     8.143078348e-05    -7.373377295e-05    -7.697010527e-06     0.0003433550326    -1.189401433e-05    -6.603676242e-05
                   3                   6     8.936012636e-05    -6.580443006e-05     -2.35556963e-05     3.302591977e-05    -1.189401433e-05    -4.224873375e-05
                   3                   7    -8.936012636e-05     6.580443006e-05      2.35556963e-05     3.302591977e-05     1.189401433e-05    -4.224873375e-05
                   3                   8    -8.143078348e-05     7.373377295e-05     7.697010527e-06     0.0003433550326     1.189401433e-05    -6.603676242e-05

***** Plastic Strain Data ******
          Element No         Integral No          PStrain XX          PStrain YY          PStrain ZZ          PStrain XY          PStrain XZ          PStrain YZ
                   1                   1                   0                   0                   0                   0                   0                   0
                   1                   2                   0                   0                   0                   0                   0                   0
                   1                   3                   0                   0                   0                   0                   0                   0
                   1                   4                   0                   0                   0                   0                   0                   0
                   1                   5                   0                   0                   0                   0                   0                   0
                   1                   6                   0                   0                   0                   0                   0                   0
                   1                   7                   0                   0                   0                   0                   0                   0
                   1                   8                   0                   0                   0                   0                   0                   0
                   2                   1                   0                   0                   0                   0                   0                   0
                   2                   2                   0                   0                   0                   0                   0                   0
                   2                   3                   0                   0                   0                   0                   0                   0
                   2                   4                   0                   0                   0                   0                   0                   0
                   2                   5                   0                   0                   0                   0                   0                   0
                   2                   6                   0                   0                   0                   0                   0                   0
                   2                   7                   0                   0                   0                   0                   0                   0
                   2                   8                   0                   0                   0                   0                   0                   0
                   3                   1                   0                   0                   0                   0                   0                   0
                   3                   2                   0                   0                   0                   0                   0                   0
                   3                   3                   0                   0                   0                   0                   0                   0
                   3                   4                   0                   0                   0                   0                   0                   0
                   3                   5                   0                   0                   0                   0                   0                   0
                   3                   6                   0                   0                   0                   0                   0                   0
                   3                   7                   0                   0                   0                   0                   0                   0
                   3                   8                   0                   0                   0                   0                   0                   0

***** Reaction Force Data ******
              NodeNo           Magnitude             X Force             Y Force             Z Force----------------------------------------------------------------------------------------------------
                   1         23.47930465               -22.8                -3.8          4.12283236
                   2     1.039256521e-13     7.815970093e-14     6.794564911e-14     8.659739592e-15
                   3     1.071360042e-13     5.773159728e-14     8.926193118e-14      1.33226763e-14
                   4     9.688940034e-14     8.304468224e-14     1.776356839e-14     4.664324482e-14
                   5         23.47930465               -22.8                -3.8         -4.12283236
                   6     1.209792664e-13     5.506706202e-14     1.070254996e-13     1.221245327e-14
                   7     7.234574775e-14     1.421085472e-14     4.485301019e-14    -5.495603972e-14
                   8     8.979827827e-14     8.004708008e-14     -4.04121181e-14     4.801714582e-15
                   9         23.47930465                22.8                -3.8         -4.12283236
                  10     4.988448382e-14      4.97379915e-14     3.108624469e-15    -2.220446049e-15
                  11     1.357382843e-13    -1.323385845e-13    -1.376676551e-14      2.68673972e-14
                  12     1.371030598e-13    -5.578870699e-14    -1.252331572e-13     1.235123115e-15
                  13         23.47930465                22.8                -3.8          4.12283236
                  14     6.397967831e-14     3.197442311e-14    -5.151434834e-14    -2.042810365e-14
                  15     1.671357707e-13    -1.589839371e-13    -2.442490654e-14    -4.540812171e-14
                  16      9.96788895e-14     1.731947918e-14    -9.814371538e-14    -1.930747229e-15

*Increment 39

***** Displacement Data ******
              NodeNo           Magnitude      X Displacement      Y Displacement      Z Displacement
----------------------------------------------------------------------------------------------------
                   1                   0                   0                   0                   0
                   2      0.001984611296      0.001296768222      0.001489911079    -0.0001929744898
                   3       0.00551790871      0.002115864364      0.005095686522    -6.643343827e-05
                   4       0.01008415574      0.002391689704      0.009796383447    -2.981239414e-05
                   5                   0                   0                   0                   0
                   6      0.001984611296      0.001296768222      0.001489911079     0.0001929744898
                   7       0.00551790871      0.002115864364      0.005095686522     6.643343827e-05
                   8       0.01008415574      0.002391689704      0.009796383447     2.981239414e-05
                   9                   0                   0                   0                   0
                  10      0.001984611296     -0.001296768222      0.001489911079     0.0001929744898
                  11       0.00551790871     -0.002115864364      0.005095686522     6.643343827e-05
                  12       0.01008415574     -0.002391689704      0.009796383447     2.981239414e-05
                  13                   0                   0                   0                   0
                  14      0.001984611296     -0.001296768222      0.001489911079    -0.0001929744898
                  15       0.00551790871     -0.002115864364      0.005095686522    -6.643343827e-05
                  16       0.01008415574     -0.002391689704      0.009796383447    -2.981239414e-05

***** Stress Data ******
          Element No         Integral No           Stress XX           Stress YY           Stress ZZ           Stress XY           Stress XZ           Stress YZ               Mises            YieldFlg
                   1                   1         78.09253415        -42.84961291        -35.24292124         76.07107353        -5.195467032         3.803345836         176.7758318               False
                   1                   2         71.16524477        -49.77690229        -21.38834249        -44.87107353        -5.195467032          14.1942799         136.8400197               False
                   1                   3        -71.16524477         49.77690229         21.38834249        -44.87107353         5.195467032          14.1942799         136.8400197               False
                   1                   4        -78.09253415         42.84961291         35.24292124         76.07107353         5.195467032         3.803345836         176.7758318               False
                   1                   5         78.09253415        -42.84961291        -35.24292124         76.07107353         5.195467032        -3.803345836         176.7758318               False
                   1                   6         71.16524477        -49.77690229        -21.38834249        -44.87107353         5.195467032         -14.1942799         136.8400197               False
                   1                   7        -71.16524477         49.77690229         21.38834249        -44.87107353        -5.195467032         -14.1942799         136.8400197               False
                   1                   8        -78.09253415         42.84961291         35.24292124         76.07107353        -5.195467032        -3.803345836         176.7758318               False
                   2                   1         40.59252451        -35.79988279        -4.792641719         53.79620365         3.406874463         15.50362053         117.7562432               False
                   2                   2         45.13502379         -31.2573835        -13.87764029        -22.59620365         3.406874463         8.689871608         81.26070507               False
                   2                   3        -45.13502379          31.2573835         13.87764029        -22.59620365        -3.406874463         8.689871608         81.26070507               False
                   2                   4        -40.59252451         35.79988279         4.792641719         53.79620365        -3.406874463         15.50362053         117.7562432               False
                   2                   5         40.59252451        -35.79988279        -4.792641719         53.79620365        -3.406874463        -15.50362053         117.7562432               False
                   2                   6         45.13502379         -31.2573835        -13.87764029        -22.59620365        -3.406874463        -8.689871608         81.26070507               False
                   2                   7        -45.13502379          31.2573835         13.87764029        -22.59620365         3.406874463        -8.689871608         81.26070507               False
                   2                   8        -40.59252451         35.79988279         4.792641719         53.79620365         3.406874463        -15.50362053         117.7562432               False
                   3                   1         13.50036673        -12.22428341        -1.276083324         28.46232507        0.9859511881         5.474100043         54.98279323               False
                   3                   2         14.81496832        -10.90968183        -3.905286493         2.737674928        0.9859511881         3.502197667          24.3481132               False
                   3                   3        -14.81496832         10.90968183         3.905286493         2.737674928       -0.9859511881         3.502197667          24.3481132               False
                   3                   4        -13.50036673         12.22428341         1.276083324         28.46232507       -0.9859511881         5.474100043         54.98279323               False
                   3                   5         13.50036673        -12.22428341        -1.276083324         28.46232507       -0.9859511881        -5.474100043         54.98279323               False
                   3                   6         14.81496832        -10.90968183        -3.905286493         2.737674928       -0.9859511881        -3.502197667          24.3481132               False
                   3                   7        -14.81496832         10.90968183         3.905286493         2.737674928        0.9859511881        -3.502197667          24.3481132               False
                   3                   8        -13.50036673         12.22428341         1.276083324         28.46232507        0.9859511881        -5.474100043         54.98279323               False

***** Strain Data ******
          Element No         Integral No           Strain XX           Strain YY           Strain ZZ           Strain XY           Strain XZ           Strain YZ
                   1                   1     0.0004834299733    -0.0002652595085    -0.0002181704648     0.0009418323389    -6.432482992e-05     4.708904369e-05
                   1                   2     0.0004405467534    -0.0003081427284    -0.0001324040249    -0.0005555466247    -6.432482992e-05     0.0001757387035
                   1                   3    -0.0004405467534     0.0003081427284     0.0001324040249    -0.0005555466247     6.432482992e-05     0.0001757387035
                   1                   4    -0.0004834299733     0.0002652595085     0.0002181704648     0.0009418323389     6.432482992e-05     4.708904369e-05
                   1                   5     0.0004834299733    -0.0002652595085    -0.0002181704648     0.0009418323389     6.432482992e-05    -4.708904369e-05
                   1                   6     0.0004405467534    -0.0003081427284    -0.0001324040249    -0.0005555466247     6.432482992e-05    -0.0001757387035
                   1                   7    -0.0004405467534     0.0003081427284     0.0001324040249    -0.0005555466247    -6.432482992e-05    -0.0001757387035
                   1                   8    -0.0004834299733     0.0002652595085     0.0002181704648     0.0009418323389    -6.432482992e-05    -4.708904369e-05
                   2                   1     0.0002512870565     -0.000221618322    -2.966873445e-05     0.0006660482356     4.218035049e-05     0.0001919495876
                   2                   2     0.0002794072901    -0.0001934980884    -8.590920177e-05    -0.0002797625213     4.218035049e-05     0.0001075888866
                   2                   3    -0.0002794072901     0.0001934980884     8.590920177e-05    -0.0002797625213    -4.218035049e-05     0.0001075888866
                   2                   4    -0.0002512870565      0.000221618322     2.966873445e-05     0.0006660482356    -4.218035049e-05     0.0001919495876
                   2                   5     0.0002512870565     -0.000221618322    -2.966873445e-05     0.0006660482356    -4.218035049e-05    -0.0001919495876
                   2                   6     0.0002794072901    -0.0001934980884    -8.590920177e-05    -0.0002797625213    -4.218035049e-05    -0.0001075888866
                   2                   7    -0.0002794072901     0.0001934980884     8.590920177e-05    -0.0002797625213     4.218035049e-05    -0.0001075888866
                   2                   8    -0.0002512870565      0.000221618322     2.966873445e-05     0.0006660482356     4.218035049e-05    -0.0001919495876
                   3                   1     8.357369883e-05    -7.567413539e-05    -7.899563436e-06     0.0003523906914     1.220701471e-05     6.777457196e-05
                   3                   2     9.171170864e-05    -6.753612559e-05    -2.417558305e-05     3.389502292e-05     1.220701471e-05     4.336054254e-05
                   3                   3    -9.171170864e-05     6.753612559e-05     2.417558305e-05     3.389502292e-05    -1.220701471e-05     4.336054254e-05
                   3                   4    -8.357369883e-05     7.567413539e-05     7.899563436e-06     0.0003523906914    -1.220701471e-05     6.777457196e-05
                   3                   5     8.357369883e-05    -7.567413539e-05    -7.899563436e-06     0.0003523906914    -1.220701471e-05    -6.777457196e-05
                   3                   6     9.171170864e-05    -6.753612559e-05    -2.417558305e-05     3.389502292e-05    -1.220701471e-05    -4.336054254e-05
                   3                   7    -9.171170864e-05     6.753612559e-05     2.417558305e-05     3.389502292e-05     1.220701471e-05    -4.336054254e-05
                   3                   8    -8.357369883e-05     7.567413539e-05     7.899563436e-06     0.0003523906914     1.220701471e-05    -6.777457196e-05

***** Plastic Strain Data ******
          Element No         Integral No          PStrain XX          PStrain YY          PStrain ZZ          PStrain XY          PStrain XZ          PStrain YZ
                   1                   1                   0                   0                   0                   0                   0                   0
                   1                   2                   0                   0                   0                   0                   0                   0
                   1                   3                   0                   0                   0                   0                   0                   0
                   1                   4                   0                   0                   0                   0                   0                   0
                   1                   5                   0                   0                   0                   0                   0                   0
                   1                   6                   0                   0                   0                   0                   0                   0
                   1                   7                   0                   0                   0                   0                   0                   0
                   1                   8                   0                   0                   0                   0                   0                   0
                   2                   1                   0                   0                   0                   0                   0                   0
                   2                   2                   0                   0                   0                   0                   0                   0
                   2                   3                   0                   0                   0                   0                   0                   0
                   2                   4                   0                   0                   0                   0                   0                   0
                   2                   5                   0                   0                   0                   0                   0                   0
                   2                   6                   0                   0                   0                   0                   0                   0
                   2                   7                   0                   0                   0                   0                   0                   0
                   2                   8                   0                   0                   0                   0                   0                   0
                   3                   1                   0                   0                   0                   0                   0                   0
                   3                   2                   0                   0                   0                   0                   0                   0
                   3                   3                   0                   0                   0                   0                   0                   0
                   3                   4                   0                   0                   0                   0                   0                   0
                   3                   5                   0                   0                   0                   0                   0                   0
                   3                   6                   0                   0                   0                   0                   0                   0
                   3                   7                   0                   0                   0                   0                   0                   0
                   3                   8                   0                   0                   0                   0                   0                   0

***** Reaction Force Data ******
              NodeNo           Magnitude             X Force             Y Force             Z Force----------------------------------------------------------------------------------------------------
                   1         24.09718108               -23.4                -3.9         4.231327948
                   2     1.178787106e-13     8.881784197e-14      7.68274333e-14     1.021405183e-14
                   3     1.506222028e-13     1.039168751e-13     1.088018564e-13     7.105427358e-15
                   4     7.898679575e-14     2.392530618e-14     3.819167205e-14     6.486824966e-14
                   5         24.09718108               -23.4                -3.9        -4.231327948
                   6     1.332889209e-13     7.638334409e-14     1.074695888e-13     1.953992523e-14
                   7     1.093039236e-13     2.664535259e-14     8.437694987e-14    -6.417089082e-14
                   8     3.712282039e-14     1.965094754e-14     4.884981308e-15    -3.111400027e-14
                   9         24.09718108                23.4                -3.9        -4.231327948
                  10     3.468447607e-14     3.197442311e-14      1.33226763e-14    -1.776356839e-15
                  11     1.506932585e-13    -1.056932319e-13    -9.148237723e-14     5.628830735e-14
                  12      1.56755444e-13    -6.941669461e-14     -1.35447209e-13     3.751859934e-14
                  13         24.09718108                23.4                -3.9         4.231327948
                  14     6.076724362e-14     3.197442311e-14    -4.707345624e-14    -2.131628207e-14
                  15     1.658639386e-13    -1.199040867e-13    -9.237055565e-14     -6.78346268e-14
                  16     9.713470159e-14     2.109423747e-14    -9.370282328e-14    -1.449014519e-14

*Increment 40

***** Displacement Data ******
              NodeNo           Magnitude      X Displacement      Y Displacement      Z Displacement
----------------------------------------------------------------------------------------------------
                   1                   0                   0                   0                   0
                   2      0.002035498765      0.001330018689      0.001528113927    -0.0001979225536
                   3      0.005659393549      0.002170117297       0.00522634515    -6.813685976e-05
                   4       0.01034272384      0.002453015081       0.01004757277     -3.05768145e-05
                   5                   0                   0                   0                   0
                   6      0.002035498765      0.001330018689      0.001528113927     0.0001979225536
                   7      0.005659393549      0.002170117297       0.00522634515     6.813685976e-05
                   8       0.01034272384      0.002453015081       0.01004757277      3.05768145e-05
                   9                   0                   0                   0                   0
                  10      0.002035498765     -0.001330018689      0.001528113927     0.0001979225536
                  11      0.005659393549     -0.002170117297       0.00522634515     6.813685976e-05
                  12       0.01034272384     -0.002453015081       0.01004757277      3.05768145e-05
                  13                   0                   0                   0                   0
                  14      0.002035498765     -0.001330018689      0.001528113927    -0.0001979225536
                  15      0.005659393549     -0.002170117297       0.00522634515    -6.813685976e-05
                  16       0.01034272384     -0.002453015081       0.01004757277     -3.05768145e-05

***** Stress Data ******
          Element No         Integral No           Stress XX           Stress YY           Stress ZZ           Stress XY           Stress XZ           Stress YZ               Mises            YieldFlg
                   1                   1         80.09490682        -43.94832093        -36.14658589         78.02161388        -5.328684135         3.900867524         181.3085454               False
                   1                   2         72.98999464        -51.05323311        -21.93676152        -46.02161388        -5.328684135         14.55823579         140.3487381               False
                   1                   3        -72.98999464         51.05323311         21.93676152        -46.02161388         5.328684135         14.55823579         140.3487381               False
                   1                   4        -80.09490682         43.94832093         36.14658589         78.02161388         5.328684135         3.900867524         181.3085454               False
                   1                   5         80.09490682        -43.94832093        -36.14658589         78.02161388         5.328684135        -3.900867524         181.3085454               False
                   1                   6         72.98999464        -51.05323311        -21.93676152        -46.02161388         5.328684135        -14.55823579         140.3487381               False
                   1                   7        -72.98999464         51.05323311         21.93676152        -46.02161388        -5.328684135        -14.55823579         140.3487381               False
                   1                   8        -80.09490682         43.94832093         36.14658589         78.02161388        -5.328684135        -3.900867524         181.3085454               False
                   2                   1         41.63335847         -36.7178285        -4.915529968         55.17559348         3.494230218         15.90114927          120.775634               False
                   2                   2         46.29233209        -32.05885487        -14.23347722        -23.17559348         3.494230218         8.912688829         83.34431289               False
                   2                   3        -46.29233209         32.05885487         14.23347722        -23.17559348        -3.494230218         8.912688829         83.34431289               False
                   2                   4        -41.63335847          36.7178285         4.915529968         55.17559348        -3.494230218         15.90114927          120.775634               False
                   2                   5         41.63335847         -36.7178285        -4.915529968         55.17559348        -3.494230218        -15.90114927          120.775634               False
                   2                   6         46.29233209        -32.05885487        -14.23347722        -23.17559348        -3.494230218        -8.912688829         83.34431289               False
                   2                   7        -46.29233209         32.05885487         14.23347722        -23.17559348         3.494230218        -8.912688829         83.34431289               False
                   2                   8        -41.63335847          36.7178285         4.915529968         55.17559348         3.494230218        -15.90114927          120.775634               False
                   3                   1         13.84652998        -12.53772657        -1.308803409         29.19212828         1.011231988         5.614461582         56.39260845               False
                   3                   2          15.1948393        -11.18941726        -4.005422044         2.807871721         1.011231988         3.591997607         24.97242379               False
                   3                   3         -15.1948393         11.18941726         4.005422044         2.807871721        -1.011231988         3.591997607         24.97242379               False
                   3                   4        -13.84652998         12.53772657         1.308803409         29.19212828        -1.011231988         5.614461582         56.39260845               False
                   3                   5         13.84652998        -12.53772657        -1.308803409         29.19212828        -1.011231988        -5.614461582         56.39260845               False
                   3                   6          15.1948393        -11.18941726        -4.005422044         2.807871721        -1.011231988        -3.591997607         24.97242379               False
                   3                   7         -15.1948393         11.18941726         4.005422044         2.807871721         1.011231988        -3.591997607         24.97242379               False
                   3                   8        -13.84652998         12.53772657         1.308803409         29.19212828         1.011231988        -5.614461582         56.39260845               False

***** Strain Data ******
          Element No         Integral No           Strain XX           Strain YY           Strain ZZ           Strain XY           Strain XZ           Strain YZ
                   1                   1     0.0004958256136    -0.0002720610344    -0.0002237645793     0.0009659818861    -6.597418453e-05     4.829645506e-05
                   1                   2      0.000451842824     -0.000316043824    -0.0001357989999    -0.0005697914099    -6.597418453e-05     0.0001802448241
                   1                   3     -0.000451842824      0.000316043824     0.0001357989999    -0.0005697914099     6.597418453e-05     0.0001802448241
                   1                   4    -0.0004958256136     0.0002720610344     0.0002237645793     0.0009659818861     6.597418453e-05     4.829645506e-05
                   1                   5     0.0004958256136    -0.0002720610344    -0.0002237645793     0.0009659818861     6.597418453e-05    -4.829645506e-05
                   1                   6      0.000451842824     -0.000316043824    -0.0001357989999    -0.0005697914099     6.597418453e-05    -0.0001802448241
                   1                   7     -0.000451842824      0.000316043824     0.0001357989999    -0.0005697914099    -6.597418453e-05    -0.0001802448241
                   1                   8    -0.0004958256136     0.0002720610344     0.0002237645793     0.0009659818861    -6.597418453e-05    -4.829645506e-05
                   2                   1     0.0002577303143    -0.0002273008431    -3.042947123e-05     0.0006831263955     4.326189794e-05     0.0001968713719
                   2                   2     0.0002865715796    -0.0001984595778    -8.811200182e-05    -0.0002869359193     4.326189794e-05      0.000110347576
                   2                   3    -0.0002865715796     0.0001984595778     8.811200182e-05    -0.0002869359193    -4.326189794e-05      0.000110347576
                   2                   4    -0.0002577303143     0.0002273008431     3.042947123e-05     0.0006831263955    -4.326189794e-05     0.0001968713719
                   2                   5     0.0002577303143    -0.0002273008431    -3.042947123e-05     0.0006831263955    -4.326189794e-05    -0.0001968713719
                   2                   6     0.0002865715796    -0.0001984595778    -8.811200182e-05    -0.0002869359193    -4.326189794e-05     -0.000110347576
                   2                   7    -0.0002865715796     0.0001984595778     8.811200182e-05    -0.0002869359193     4.326189794e-05     -0.000110347576
                   2                   8    -0.0002577303143     0.0002273008431     3.042947123e-05     0.0006831263955     4.326189794e-05    -0.0001968713719
                   3                   1     8.571661418e-05    -7.761449784e-05    -8.102116344e-06     0.0003614263501     1.252001509e-05      6.95123815e-05
                   3                   2     9.406329091e-05    -6.926782112e-05    -2.479546979e-05     3.476412607e-05     1.252001509e-05     4.447235132e-05
                   3                   3    -9.406329091e-05     6.926782112e-05     2.479546979e-05     3.476412607e-05    -1.252001509e-05     4.447235132e-05
                   3                   4    -8.571661418e-05     7.761449784e-05     8.102116344e-06     0.0003614263501    -1.252001509e-05      6.95123815e-05
                   3                   5     8.571661418e-05    -7.761449784e-05    -8.102116344e-06     0.0003614263501    -1.252001509e-05     -6.95123815e-05
                   3                   6     9.406329091e-05    -6.926782112e-05    -2.479546979e-05     3.476412607e-05    -1.252001509e-05    -4.447235132e-05
                   3                   7    -9.406329091e-05     6.926782112e-05     2.479546979e-05     3.476412607e-05     1.252001509e-05    -4.447235132e-05
                   3                   8    -8.571661418e-05     7.761449784e-05     8.102116344e-06     0.0003614263501     1.252001509e-05     -6.95123815e-05

***** Plastic Strain Data ******
          Element No         Integral No          PStrain XX          PStrain YY          PStrain ZZ          PStrain XY          PStrain XZ          PStrain YZ
                   1                   1                   0                   0                   0                   0                   0                   0
                   1                   2                   0                   0                   0                   0                   0                   0
                   1                   3                   0                   0                   0                   0                   0                   0
                   1                   4                   0                   0                   0                   0                   0                   0
                   1                   5                   0                   0                   0                   0                   0                   0
                   1                   6                   0                   0                   0                   0                   0                   0
                   1                   7                   0                   0                   0                   0                   0                   0
                   1                   8                   0                   0                   0                   0                   0                   0
                   2                   1                   0                   0                   0                   0                   0                   0
                   2                   2                   0                   0                   0                   0                   0                   0
                   2                   3                   0                   0                   0                   0                   0                   0
                   2                   4                   0                   0                   0                   0                   0                   0
                   2                   5                   0                   0                   0                   0                   0                   0
                   2                   6                   0                   0                   0                   0                   0                   0
                   2                   7                   0                   0                   0                   0                   0                   0
                   2                   8                   0                   0                   0                   0                   0                   0
                   3                   1                   0                   0                   0                   0                   0                   0
                   3                   2                   0                   0                   0                   0                   0                   0
                   3                   3                   0                   0                   0                   0                   0                   0
                   3                   4                   0                   0                   0                   0                   0                   0
                   3                   5                   0                   0                   0                   0                   0                   0
                   3                   6                   0                   0                   0                   0                   0                   0
                   3                   7                   0                   0                   0                   0                   0                   0
                   3                   8                   0                   0                   0                   0                   0                   0

***** Reaction Force Data ******
              NodeNo           Magnitude             X Force             Y Force             Z Force----------------------------------------------------------------------------------------------------
                   1         24.71505752                 -24                  -4         4.339823537
                   2     9.806255013e-14     8.171241461e-14      5.41788836e-14     1.998401444e-15
                   3     1.123866545e-13     7.727152251e-14      8.12683254e-14     7.438494265e-15
                   4     9.022383411e-14      2.60624855e-14     6.039613254e-14      6.17526863e-14
                   5         24.71505752                 -24                  -4        -4.339823537
                   6      1.24502887e-13     7.283063042e-14     9.814371538e-14     2.375877273e-14
                   7     1.073613219e-13     2.309263891e-14       7.1942452e-14    -7.627232179e-14
                   8     6.075641614e-14     3.785860514e-14     4.174438573e-14    -2.270406085e-14
                   9         24.71505752                  24                  -4        -4.339823537
                  10      4.47804022e-14     3.730349363e-14     2.398081733e-14    -6.217248938e-15
                  11     1.218229872e-13    -7.638334409e-14    -8.082423619e-14      4.97379915e-14
                  12     1.639847139e-13    -7.371880884e-14    -1.421085472e-13     3.552019789e-14
                  13         24.71505752                  24                  -4         4.339823537
                  14     3.813030228e-14     1.953992523e-14    -3.019806627e-14    -1.265654248e-14
                  15      1.36817365e-13    -9.769962617e-14    -7.460698725e-14    -6.006306563e-14
                  16     1.338721105e-13     1.632027846e-14    -1.327826737e-13    -4.914471607e-15

*Increment 41

***** Displacement Data ******
              NodeNo           Magnitude      X Displacement      Y Displacement      Z Displacement
----------------------------------------------------------------------------------------------------
                   1                   0                   0                   0                   0
                   2      0.002086386234      0.001363269156      0.001566316775    -0.0002028706174
                   3      0.005800878388      0.002224370229      0.005357003779    -6.984028126e-05
                   4       0.01060129194      0.002514340458       0.01029876209    -3.134123486e-05
                   5                   0                   0                   0                   0
                   6      0.002086386234      0.001363269156      0.001566316775     0.0002028706174
                   7      0.005800878388      0.002224370229      0.005357003779     6.984028126e-05
                   8       0.01060129194      0.002514340458       0.01029876209     3.134123486e-05
                   9                   0                   0                   0                   0
                  10      0.002086386234     -0.001363269156      0.001566316775     0.0002028706174
                  11      0.005800878388     -0.002224370229      0.005357003779     6.984028126e-05
                  12       0.01060129194     -0.002514340458       0.01029876209     3.134123486e-05
                  13                   0                   0                   0                   0
                  14      0.002086386234     -0.001363269156      0.001566316775    -0.0002028706174
                  15      0.005800878388     -0.002224370229      0.005357003779    -6.984028126e-05
                  16       0.01060129194     -0.002514340458       0.01029876209    -3.134123486e-05

***** Stress Data ******
          Element No         Integral No           Stress XX           Stress YY           Stress ZZ           Stress XY           Stress XZ           Stress YZ               Mises            YieldFlg
                   1                   1         82.09727949        -45.04702896        -37.05025053         79.97215422        -5.461901239         3.998389213         185.8412591               False
                   1                   2          74.8147445        -52.32956394        -22.48518056        -47.17215422        -5.461901239         14.92219169         143.8574566               False
                   1                   3         -74.8147445         52.32956394         22.48518056        -47.17215422         5.461901239         14.92219169         143.8574566               False
                   1                   4        -82.09727949         45.04702896         37.05025053         79.97215422         5.461901239         3.998389213         185.8412591               False
                   1                   5         82.09727949        -45.04702896        -37.05025053         79.97215422         5.461901239        -3.998389213         185.8412591               False
                   1                   6          74.8147445        -52.32956394        -22.48518056        -47.17215422         5.461901239        -14.92219169         143.8574566               False
                   1                   7         -74.8147445         52.32956394         22.48518056        -47.17215422        -5.461901239        -14.92219169         143.8574566               False
                   1                   8        -82.09727949         45.04702896         37.05025053         79.97215422        -5.461901239        -3.998389213         185.8412591               False
                   2                   1         42.67419243        -37.63577421        -5.038418217         56.55498332         3.581585974           16.298678         123.7950249               False
                   2                   2         47.44964039        -32.86032625        -14.58931415        -23.75498332         3.581585974          9.13550605         85.42792071               False
                   2                   3        -47.44964039         32.86032625         14.58931415        -23.75498332        -3.581585974          9.13550605         85.42792071               False
                   2                   4        -42.67419243         37.63577421         5.038418217         56.55498332        -3.581585974           16.298678         123.7950249               False
                   2                   5         42.67419243        -37.63577421        -5.038418217         56.55498332        -3.581585974          -16.298678         123.7950249               False
                   2                   6         47.44964039        -32.86032625        -14.58931415        -23.75498332        -3.581585974         -9.13550605         85.42792071               False
                   2                   7        -47.44964039         32.86032625         14.58931415        -23.75498332         3.581585974         -9.13550605         85.42792071               False
                   2                   8        -42.67419243         37.63577421         5.038418217         56.55498332         3.581585974          -16.298678         123.7950249               False
                   3                   1         14.19269323        -12.85116974        -1.341523495         29.92193149         1.036512788         5.754823122         57.80242366               False
                   3                   2         15.57471028        -11.46915269        -4.105557595         2.878068514         1.036512788         3.681797547         25.59673439               False
                   3                   3        -15.57471028         11.46915269         4.105557595         2.878068514        -1.036512788         3.681797547         25.59673439               False
                   3                   4        -14.19269323         12.85116974         1.341523495         29.92193149        -1.036512788         5.754823122         57.80242366               False
                   3                   5         14.19269323        -12.85116974        -1.341523495         29.92193149        -1.036512788        -5.754823122         57.80242366               False
                   3                   6         15.57471028        -11.46915269        -4.105557595         2.878068514        -1.036512788        -3.681797547         25.59673439               False
                   3                   7        -15.57471028         11.46915269         4.105557595         2.878068514         1.036512788        -3.681797547         25.59673439               False
                   3                   8        -14.19269323         12.85116974         1.341523495         29.92193149         1.036512788        -5.754823122         57.80242366               False

***** Strain Data ******
          Element No         Integral No           Strain XX           Strain YY           Strain ZZ           Strain XY           Strain XZ           Strain YZ
                   1                   1      0.000508221254    -0.0002788625602    -0.0002293586938     0.0009901314332    -6.762353914e-05     4.950386644e-05
                   1                   2     0.0004631388946    -0.0003239449196    -0.0001391939749    -0.0005840361951    -6.762353914e-05     0.0001847509447
                   1                   3    -0.0004631388946     0.0003239449196     0.0001391939749    -0.0005840361951     6.762353914e-05     0.0001847509447
                   1                   4     -0.000508221254     0.0002788625602     0.0002293586938     0.0009901314332     6.762353914e-05     4.950386644e-05
                   1                   5      0.000508221254    -0.0002788625602    -0.0002293586938     0.0009901314332     6.762353914e-05    -4.950386644e-05
                   1                   6     0.0004631388946    -0.0003239449196    -0.0001391939749    -0.0005840361951     6.762353914e-05    -0.0001847509447
                   1                   7    -0.0004631388946     0.0003239449196     0.0001391939749    -0.0005840361951    -6.762353914e-05    -0.0001847509447
                   1                   8     -0.000508221254     0.0002788625602     0.0002293586938     0.0009901314332    -6.762353914e-05    -4.950386644e-05
                   2                   1     0.0002641735722    -0.0002329833642    -3.119020801e-05     0.0007002045554     4.434344539e-05     0.0002017931562
                   2                   2     0.0002937358691    -0.0002034210672    -9.031480187e-05    -0.0002941093173     4.434344539e-05     0.0001131062654
                   2                   3    -0.0002937358691     0.0002034210672     9.031480187e-05    -0.0002941093173    -4.434344539e-05     0.0001131062654
                   2                   4    -0.0002641735722     0.0002329833642     3.119020801e-05     0.0007002045554    -4.434344539e-05     0.0002017931562
                   2                   5     0.0002641735722    -0.0002329833642    -3.119020801e-05     0.0007002045554    -4.434344539e-05    -0.0002017931562
                   2                   6     0.0002937358691    -0.0002034210672    -9.031480187e-05    -0.0002941093173    -4.434344539e-05    -0.0001131062654
                   2                   7    -0.0002937358691     0.0002034210672     9.031480187e-05    -0.0002941093173     4.434344539e-05    -0.0001131062654
                   2                   8    -0.0002641735722     0.0002329833642     3.119020801e-05     0.0007002045554     4.434344539e-05    -0.0002017931562
                   3                   1     8.785952954e-05    -7.955486029e-05    -8.304669253e-06     0.0003704620089     1.283301546e-05     7.125019103e-05
                   3                   2     9.641487318e-05    -7.099951664e-05    -2.541535654e-05     3.563322922e-05     1.283301546e-05      4.55841601e-05
                   3                   3    -9.641487318e-05     7.099951664e-05     2.541535654e-05     3.563322922e-05    -1.283301546e-05      4.55841601e-05
                   3                   4    -8.785952954e-05     7.955486029e-05     8.304669253e-06     0.0003704620089    -1.283301546e-05     7.125019103e-05
                   3                   5     8.785952954e-05    -7.955486029e-05    -8.304669253e-06     0.0003704620089    -1.283301546e-05    -7.125019103e-05
                   3                   6     9.641487318e-05    -7.099951664e-05    -2.541535654e-05     3.563322922e-05    -1.283301546e-05     -4.55841601e-05
                   3                   7    -9.641487318e-05     7.099951664e-05     2.541535654e-05     3.563322922e-05     1.283301546e-05     -4.55841601e-05
                   3                   8    -8.785952954e-05     7.955486029e-05     8.304669253e-06     0.0003704620089     1.283301546e-05    -7.125019103e-05

***** Plastic Strain Data ******
          Element No         Integral No          PStrain XX          PStrain YY          PStrain ZZ          PStrain XY          PStrain XZ          PStrain YZ
                   1                   1                   0                   0                   0                   0                   0                   0
                   1                   2                   0                   0                   0                   0                   0                   0
                   1                   3                   0                   0                   0                   0                   0                   0
                   1                   4                   0                   0                   0                   0                   0                   0
                   1                   5                   0                   0                   0                   0                   0                   0
                   1                   6                   0                   0                   0                   0                   0                   0
                   1                   7                   0                   0                   0                   0                   0                   0
                   1                   8                   0                   0                   0                   0                   0                   0
                   2                   1                   0                   0                   0                   0                   0                   0
                   2                   2                   0                   0                   0                   0                   0                   0
                   2                   3                   0                   0                   0                   0                   0                   0
                   2                   4                   0                   0                   0                   0                   0                   0
                   2                   5                   0                   0                   0                   0                   0                   0
                   2                   6                   0                   0                   0                   0                   0                   0
                   2                   7                   0                   0                   0                   0                   0                   0
                   2                   8                   0                   0                   0                   0                   0                   0
                   3                   1                   0                   0                   0                   0                   0                   0
                   3                   2                   0                   0                   0                   0                   0                   0
                   3                   3                   0                   0                   0                   0                   0                   0
                   3                   4                   0                   0                   0                   0                   0                   0
                   3                   5                   0                   0                   0                   0                   0                   0
                   3                   6                   0                   0                   0                   0                   0                   0
                   3                   7                   0                   0                   0                   0                   0                   0
                   3                   8                   0                   0                   0                   0                   0                   0

***** Reaction Force Data ******
              NodeNo           Magnitude             X Force             Y Force             Z Force----------------------------------------------------------------------------------------------------
                   1         25.33293396               -24.6                -4.1         4.448319125
                   2     8.878480669e-14     8.171241461e-14     3.197442311e-14     -1.35447209e-14
                   3      1.11944179e-13     7.105427358e-14     8.615330671e-14    -7.771561172e-15
                   4      1.11283105e-13     5.712097462e-14     7.283063042e-14     6.178044187e-14
                   5         25.33293396               -24.6                -4.1        -4.448319125
                   6     1.172700365e-13     7.815970093e-14     8.260059303e-14     2.864375404e-14
                   7     8.695987947e-14     3.197442311e-14     5.062616992e-14     -6.30606678e-14
                   8     6.459716537e-14     6.428191313e-14     5.329070518e-15     3.497202528e-15
                   9         25.33293396                24.6                -4.1        -4.448319125
                  10     5.138833704e-14     3.197442311e-14     3.552713679e-14    -1.887379142e-14
                  11     1.301887871e-13    -1.154631946e-13    -4.174438573e-14     4.329869796e-14
                  12     1.886774291e-13    -7.052691764e-14    -1.740829703e-13     1.789540738e-14
                  13         25.33293396                24.6                -4.1         4.448319125
                  14      1.82076576e-14     1.065814104e-14    -1.421085472e-14    -3.996802889e-15
                  15     1.229417987e-13    -1.048050535e-13    -3.641531521e-14    -5.295763827e-14
                  16     1.343859511e-13     1.754152379e-14     -1.33226763e-13    -1.583802534e-15

*Increment 42

***** Displacement Data ******
              NodeNo           Magnitude      X Displacement      Y Displacement      Z Displacement
----------------------------------------------------------------------------------------------------
                   1                   0                   0                   0                   0
                   2      0.002137273703      0.001396519623      0.001604519623    -0.0002078186813
                   3      0.005942363227      0.002278623162      0.005487662408    -7.154370275e-05
                   4       0.01085986003      0.002575665835        0.0105499514    -3.210565523e-05
                   5                   0                   0                   0                   0
                   6      0.002137273703      0.001396519623      0.001604519623     0.0002078186813
                   7      0.005942363227      0.002278623162      0.005487662408     7.154370275e-05
                   8       0.01085986003      0.002575665835        0.0105499514     3.210565523e-05
                   9                   0                   0                   0                   0
                  10      0.002137273703     -0.001396519623      0.001604519623     0.0002078186813
                  11      0.005942363227     -0.002278623162      0.005487662408     7.154370275e-05
                  12       0.01085986003     -0.002575665835        0.0105499514     3.210565523e-05
                  13                   0                   0                   0                   0
                  14      0.002137273703     -0.001396519623      0.001604519623    -0.0002078186813
                  15      0.005942363227     -0.002278623162      0.005487662408    -7.154370275e-05
                  16       0.01085986003     -0.002575665835        0.0105499514    -3.210565523e-05

***** Stress Data ******
          Element No         Integral No           Stress XX           Stress YY           Stress ZZ           Stress XY           Stress XZ           Stress YZ               Mises            YieldFlg
                   1                   1         84.09965216        -46.14573698        -37.95391518         81.92269457        -5.595118342         4.095910901         190.3739727               False
                   1                   2         76.63949437        -53.60589477         -23.0335996        -48.32269457        -5.595118342         15.28614758          147.366175               False
                   1                   3        -76.63949437         53.60589477          23.0335996        -48.32269457         5.595118342         15.28614758          147.366175               False
                   1                   4        -84.09965216         46.14573698         37.95391518         81.92269457         5.595118342         4.095910901         190.3739727               False
                   1                   5         84.09965216        -46.14573698        -37.95391518         81.92269457         5.595118342        -4.095910901         190.3739727               False
                   1                   6         76.63949437        -53.60589477         -23.0335996        -48.32269457         5.595118342        -15.28614758          147.366175               False
                   1                   7        -76.63949437         53.60589477          23.0335996        -48.32269457        -5.595118342        -15.28614758          147.366175               False
                   1                   8        -84.09965216         46.14573698         37.95391518         81.92269457        -5.595118342        -4.095910901         190.3739727               False
                   2                   1         43.71502639        -38.55371992        -5.161306466         57.93437316         3.668941729         16.69620673         126.8144158               False
                   2                   2          48.6069487        -33.66179762        -14.94515108        -24.33437316         3.668941729          9.35832327         87.51152853               False
                   2                   3         -48.6069487         33.66179762         14.94515108        -24.33437316        -3.668941729          9.35832327         87.51152853               False
                   2                   4        -43.71502639         38.55371992         5.161306466         57.93437316        -3.668941729         16.69620673         126.8144158               False
                   2                   5         43.71502639        -38.55371992        -5.161306466         57.93437316        -3.668941729        -16.69620673         126.8144158               False
                   2                   6          48.6069487        -33.66179762        -14.94515108        -24.33437316        -3.668941729         -9.35832327         87.51152853               False
                   2                   7         -48.6069487         33.66179762         14.94515108        -24.33437316         3.668941729         -9.35832327         87.51152853               False
                   2                   8        -43.71502639         38.55371992         5.161306466         57.93437316         3.668941729        -16.69620673         126.8144158               False
                   3                   1         14.53885648         -13.1646129         -1.37424358         30.65173469         1.061793587         5.895184661         59.21223887               False
                   3                   2         15.95458127        -11.74888812        -4.205693146         2.948265307         1.061793587         3.771597487         26.22104498               False
                   3                   3        -15.95458127         11.74888812         4.205693146         2.948265307        -1.061793587         3.771597487         26.22104498               False
                   3                   4        -14.53885648          13.1646129          1.37424358         30.65173469        -1.061793587         5.895184661         59.21223887               False
                   3                   5         14.53885648         -13.1646129         -1.37424358         30.65173469        -1.061793587        -5.895184661         59.21223887               False
                   3                   6         15.95458127        -11.74888812        -4.205693146         2.948265307        -1.061793587        -3.771597487         26.22104498               False
                   3                   7        -15.95458127         11.74888812         4.205693146         2.948265307         1.061793587        -3.771597487         26.22104498               False
                   3                   8        -14.53885648          13.1646129          1.37424358         30.65173469         1.061793587        -5.895184661         59.21223887               False

***** Strain Data ******
          Element No         Integral No           Strain XX           Strain YY           Strain ZZ           Strain XY           Strain XZ           Strain YZ
                   1                   1     0.0005206168943    -0.0002856640861    -0.0002349528083       0.00101428098    -6.927289376e-05     5.071127782e-05
                   1                   2     0.0004744349652    -0.0003318460152    -0.0001425889499    -0.0005982809804    -6.927289376e-05     0.0001892570653
                   1                   3    -0.0004744349652     0.0003318460152     0.0001425889499    -0.0005982809804     6.927289376e-05     0.0001892570653
                   1                   4    -0.0005206168943     0.0002856640861     0.0002349528083       0.00101428098     6.927289376e-05     5.071127782e-05
                   1                   5     0.0005206168943    -0.0002856640861    -0.0002349528083       0.00101428098     6.927289376e-05    -5.071127782e-05
                   1                   6     0.0004744349652    -0.0003318460152    -0.0001425889499    -0.0005982809804     6.927289376e-05    -0.0001892570653
                   1                   7    -0.0004744349652     0.0003318460152     0.0001425889499    -0.0005982809804    -6.927289376e-05    -0.0001892570653
                   1                   8    -0.0005206168943     0.0002856640861     0.0002349528083       0.00101428098    -6.927289376e-05    -5.071127782e-05
                   2                   1       0.00027061683    -0.0002386658852    -3.195094479e-05     0.0007172827153     4.542499284e-05     0.0002067149405
                   2                   2     0.0003009001586    -0.0002083825567    -9.251760191e-05    -0.0003012827153     4.542499284e-05     0.0001158649548
                   2                   3    -0.0003009001586     0.0002083825567     9.251760191e-05    -0.0003012827153    -4.542499284e-05     0.0001158649548
                   2                   4      -0.00027061683     0.0002386658852     3.195094479e-05     0.0007172827153    -4.542499284e-05     0.0002067149405
                   2                   5       0.00027061683    -0.0002386658852    -3.195094479e-05     0.0007172827153    -4.542499284e-05    -0.0002067149405
                   2                   6     0.0003009001586    -0.0002083825567    -9.251760191e-05    -0.0003012827153    -4.542499284e-05    -0.0001158649548
                   2                   7    -0.0003009001586     0.0002083825567     9.251760191e-05    -0.0003012827153     4.542499284e-05    -0.0001158649548
                   2                   8      -0.00027061683     0.0002386658852     3.195094479e-05     0.0007172827153     4.542499284e-05    -0.0002067149405
                   3                   1     9.000244489e-05    -8.149522273e-05    -8.507222162e-06     0.0003794976676     1.314601584e-05     7.298800057e-05
                   3                   2     9.876645545e-05    -7.273121217e-05    -2.603524328e-05     3.650233237e-05     1.314601584e-05     4.669596889e-05
                   3                   3    -9.876645545e-05     7.273121217e-05     2.603524328e-05     3.650233237e-05    -1.314601584e-05     4.669596889e-05
                   3                   4    -9.000244489e-05     8.149522273e-05     8.507222162e-06     0.0003794976676    -1.314601584e-05     7.298800057e-05
                   3                   5     9.000244489e-05    -8.149522273e-05    -8.507222162e-06     0.0003794976676    -1.314601584e-05    -7.298800057e-05
                   3                   6     9.876645545e-05    -7.273121217e-05    -2.603524328e-05     3.650233237e-05    -1.314601584e-05    -4.669596889e-05
                   3                   7    -9.876645545e-05     7.273121217e-05     2.603524328e-05     3.650233237e-05     1.314601584e-05    -4.669596889e-05
                   3                   8    -9.000244489e-05     8.149522273e-05     8.507222162e-06     0.0003794976676     1.314601584e-05    -7.298800057e-05

***** Plastic Strain Data ******
          Element No         Integral No          PStrain XX          PStrain YY          PStrain ZZ          PStrain XY          PStrain XZ          PStrain YZ
                   1                   1                   0                   0                   0                   0                   0                   0
                   1                   2                   0                   0                   0                   0                   0                   0
                   1                   3                   0                   0                   0                   0                   0                   0
                   1                   4                   0                   0                   0                   0                   0                   0
                   1                   5                   0                   0                   0                   0                   0                   0
                   1                   6                   0                   0                   0                   0                   0                   0
                   1                   7                   0                   0                   0                   0                   0                   0
                   1                   8                   0                   0                   0                   0                   0                   0
                   2                   1                   0                   0                   0                   0                   0                   0
                   2                   2                   0                   0                   0                   0                   0                   0
                   2                   3                   0                   0                   0                   0                   0                   0
                   2                   4                   0                   0                   0                   0                   0                   0
                   2                   5                   0                   0                   0                   0                   0                   0
                   2                   6                   0                   0                   0                   0                   0                   0
                   2                   7                   0                   0                   0                   0                   0                   0
                   2                   8                   0                   0                   0                   0                   0                   0
                   3                   1                   0                   0                   0                   0                   0                   0
                   3                   2                   0                   0                   0                   0                   0                   0
                   3                   3                   0                   0                   0                   0                   0                   0
                   3                   4                   0                   0                   0                   0                   0                   0
                   3                   5                   0                   0                   0                   0                   0                   0
                   3                   6                   0                   0                   0                   0                   0                   0
                   3                   7                   0                   0                   0                   0                   0                   0
                   3                   8                   0                   0                   0                   0                   0                   0

***** Reaction Force Data ******
              NodeNo           Magnitude             X Force             Y Force             Z Force----------------------------------------------------------------------------------------------------
                   1          25.9508104               -25.2                -4.2         4.556814713
                   2     1.148125212e-13     1.030286967e-13     5.062616992e-14    -1.998401444e-15
                   3     1.519570897e-13     7.993605777e-14      1.27009514e-13     2.386979503e-14
                   4     1.296773198e-13     2.742250871e-14     9.947598301e-14      7.85413401e-14
                   5          25.9508104               -25.2                -4.2        -4.556814713
                   6     1.360798328e-13     9.592326933e-14     9.503509091e-14     1.687538997e-14
                   7     1.612175723e-13     3.019806627e-14     1.190159082e-13    -1.044719866e-13
                   8      8.23446559e-14      4.49640325e-14     6.039613254e-14    -3.333444631e-14
                   9          25.9508104                25.2                -4.2        -4.556814713
                  10     4.820976501e-14     3.907985047e-14     2.664535259e-14    -9.325873407e-15
                  11     1.675859131e-13    -8.348877145e-14    -1.225686219e-13     7.804867863e-14
                  12      2.26461091e-13    -1.003641614e-13     -1.98951966e-13     4.037048473e-14
                  13          25.9508104                25.2                -4.2         4.556814713
                  14       4.0399916e-14     2.486899575e-14    -2.930988785e-14    -1.243449788e-14
                  15     1.417246982e-13    -8.171241461e-14    -9.237055565e-14    -6.983302825e-14
                  16     1.737193651e-13     -7.66053887e-15    -1.731947918e-13    -1.110396497e-14

*Increment 43

***** Displacement Data ******
              NodeNo           Magnitude      X Displacement      Y Displacement      Z Displacement
----------------------------------------------------------------------------------------------------
                   1                   0                   0                   0                   0
                   2      0.002188161173       0.00142977009      0.001642722471    -0.0002127667451
                   3      0.006083848065      0.002332876094      0.005618321037    -7.324712424e-05
                   4       0.01111842813      0.002636991212       0.01080114072    -3.287007559e-05
                   5                   0                   0                   0                   0
                   6      0.002188161173       0.00142977009      0.001642722471     0.0002127667451
                   7      0.006083848065      0.002332876094      0.005618321037     7.324712424e-05
                   8       0.01111842813      0.002636991212       0.01080114072     3.287007559e-05
                   9                   0                   0                   0                   0
                  10      0.002188161173      -0.00142977009      0.001642722471     0.0002127667451
                  11      0.006083848065     -0.002332876094      0.005618321037     7.324712424e-05
                  12       0.01111842813     -0.002636991212       0.01080114072     3.287007559e-05
                  13                   0                   0                   0                   0
                  14      0.002188161173      -0.00142977009      0.001642722471    -0.0002127667451
                  15      0.006083848065     -0.002332876094      0.005618321037    -7.324712424e-05
                  16       0.01111842813     -0.002636991212       0.01080114072    -3.287007559e-05

***** Stress Data ******
          Element No         Integral No           Stress XX           Stress YY           Stress ZZ           Stress XY           Stress XZ           Stress YZ               Mises            YieldFlg
                   1                   1         86.10202483          -47.244445        -38.85757983         83.87323492        -5.728335445         4.193432589         194.9066863               False
                   1                   2         78.46424424         -54.8822256        -23.58201864        -49.47323492        -5.728335445         15.65010348         150.8748935               False
                   1                   3        -78.46424424          54.8822256         23.58201864        -49.47323492         5.728335445         15.65010348         150.8748935               False
                   1                   4        -86.10202483           47.244445         38.85757983         83.87323492         5.728335445         4.193432589         194.9066863               False
                   1                   5         86.10202483          -47.244445        -38.85757983         83.87323492         5.728335445        -4.193432589         194.9066863               False
                   1                   6         78.46424424         -54.8822256        -23.58201864        -49.47323492         5.728335445        -15.65010348         150.8748935               False
                   1                   7        -78.46424424          54.8822256         23.58201864        -49.47323492        -5.728335445        -15.65010348         150.8748935               False
                   1                   8        -86.10202483           47.244445         38.85757983         83.87323492        -5.728335445        -4.193432589         194.9066863               False
                   2                   1         44.75586035        -39.47166564        -5.284194715         59.31376299         3.756297485         17.09373546         129.8338066               False
                   2                   2           49.764257        -34.46326899        -15.30098801        -24.91376299         3.756297485         9.581140491         89.59513636               False
                   2                   3          -49.764257         34.46326899         15.30098801        -24.91376299        -3.756297485         9.581140491         89.59513636               False
                   2                   4        -44.75586035         39.47166564         5.284194715         59.31376299        -3.756297485         17.09373546         129.8338066               False
                   2                   5         44.75586035        -39.47166564        -5.284194715         59.31376299        -3.756297485        -17.09373546         129.8338066               False
                   2                   6           49.764257        -34.46326899        -15.30098801        -24.91376299        -3.756297485        -9.581140491         89.59513636               False
                   2                   7          -49.764257         34.46326899         15.30098801        -24.91376299         3.756297485        -9.581140491         89.59513636               False
                   2                   8        -44.75586035         39.47166564         5.284194715         59.31376299         3.756297485        -17.09373546         129.8338066               False
                   3                   1         14.88501973        -13.47805607        -1.406963665          31.3815379         1.087074387         6.035546201         60.62205408               False
                   3                   2         16.33445225        -12.02862355        -4.305828697           3.0184621         1.087074387         3.861397427         26.84535558               False
                   3                   3        -16.33445225         12.02862355         4.305828697           3.0184621        -1.087074387         3.861397427         26.84535558               False
                   3                   4        -14.88501973         13.47805607         1.406963665          31.3815379        -1.087074387         6.035546201         60.62205408               False
                   3                   5         14.88501973        -13.47805607        -1.406963665          31.3815379        -1.087074387        -6.035546201         60.62205408               False
                   3                   6         16.33445225        -12.02862355        -4.305828697           3.0184621        -1.087074387        -3.861397427         26.84535558               False
                   3                   7        -16.33445225         12.02862355         4.305828697           3.0184621         1.087074387        -3.861397427         26.84535558               False
                   3                   8        -14.88501973         13.47805607         1.406963665          31.3815379         1.087074387        -6.035546201         60.62205408               False

***** Strain Data ******
          Element No         Integral No           Strain XX           Strain YY           Strain ZZ           Strain XY           Strain XZ           Strain YZ
                   1                   1     0.0005330125347    -0.0002924656119    -0.0002405469227      0.001038430528    -7.092224837e-05     5.191868919e-05
                   1                   2     0.0004857310358    -0.0003397471108    -0.0001459839249    -0.0006125257656    -7.092224837e-05     0.0001937631859
                   1                   3    -0.0004857310358     0.0003397471108     0.0001459839249    -0.0006125257656     7.092224837e-05     0.0001937631859
                   1                   4    -0.0005330125347     0.0002924656119     0.0002405469227      0.001038430528     7.092224837e-05     5.191868919e-05
                   1                   5     0.0005330125347    -0.0002924656119    -0.0002405469227      0.001038430528     7.092224837e-05    -5.191868919e-05
                   1                   6     0.0004857310358    -0.0003397471108    -0.0001459839249    -0.0006125257656     7.092224837e-05    -0.0001937631859
                   1                   7    -0.0004857310358     0.0003397471108     0.0001459839249    -0.0006125257656    -7.092224837e-05    -0.0001937631859
                   1                   8    -0.0005330125347     0.0002924656119     0.0002405469227      0.001038430528    -7.092224837e-05    -5.191868919e-05
                   2                   1     0.0002770600879    -0.0002443484063    -3.271168157e-05     0.0007343608752     4.650654029e-05     0.0002116367248
                   2                   2     0.0003080644481    -0.0002133440461    -9.472040196e-05    -0.0003084561133     4.650654029e-05     0.0001186236442
                   2                   3    -0.0003080644481     0.0002133440461     9.472040196e-05    -0.0003084561133    -4.650654029e-05     0.0001186236442
                   2                   4    -0.0002770600879     0.0002443484063     3.271168157e-05     0.0007343608752    -4.650654029e-05     0.0002116367248
                   2                   5     0.0002770600879    -0.0002443484063    -3.271168157e-05     0.0007343608752    -4.650654029e-05    -0.0002116367248
                   2                   6     0.0003080644481    -0.0002133440461    -9.472040196e-05    -0.0003084561133    -4.650654029e-05    -0.0001186236442
                   2                   7    -0.0003080644481     0.0002133440461     9.472040196e-05    -0.0003084561133     4.650654029e-05    -0.0001186236442
                   2                   8    -0.0002770600879     0.0002443484063     3.271168157e-05     0.0007343608752     4.650654029e-05    -0.0002116367248
                   3                   1     9.214536025e-05    -8.343558518e-05     -8.70977507e-06     0.0003885333264     1.345901622e-05     7.472581011e-05
                   3                   2     0.0001011180377     -7.44629077e-05    -2.665513003e-05     3.737143553e-05     1.345901622e-05     4.780777767e-05
                   3                   3    -0.0001011180377      7.44629077e-05     2.665513003e-05     3.737143553e-05    -1.345901622e-05     4.780777767e-05
                   3                   4    -9.214536025e-05     8.343558518e-05      8.70977507e-06     0.0003885333264    -1.345901622e-05     7.472581011e-05
                   3                   5     9.214536025e-05    -8.343558518e-05     -8.70977507e-06     0.0003885333264    -1.345901622e-05    -7.472581011e-05
                   3                   6     0.0001011180377     -7.44629077e-05    -2.665513003e-05     3.737143553e-05    -1.345901622e-05    -4.780777767e-05
                   3                   7    -0.0001011180377      7.44629077e-05     2.665513003e-05     3.737143553e-05     1.345901622e-05    -4.780777767e-05
                   3                   8    -9.214536025e-05     8.343558518e-05      8.70977507e-06     0.0003885333264     1.345901622e-05    -7.472581011e-05

***** Plastic Strain Data ******
          Element No         Integral No          PStrain XX          PStrain YY          PStrain ZZ          PStrain XY          PStrain XZ          PStrain YZ
                   1                   1                   0                   0                   0                   0                   0                   0
                   1                   2                   0                   0                   0                   0                   0                   0
                   1                   3                   0                   0                   0                   0                   0                   0
                   1                   4                   0                   0                   0                   0                   0                   0
                   1                   5                   0                   0                   0                   0                   0                   0
                   1                   6                   0                   0                   0                   0                   0                   0
                   1                   7                   0                   0                   0                   0                   0                   0
                   1                   8                   0                   0                   0                   0                   0                   0
                   2                   1                   0                   0                   0                   0                   0                   0
                   2                   2                   0                   0                   0                   0                   0                   0
                   2                   3                   0                   0                   0                   0                   0                   0
                   2                   4                   0                   0                   0                   0                   0                   0
                   2                   5                   0                   0                   0                   0                   0                   0
                   2                   6                   0                   0                   0                   0                   0                   0
                   2                   7                   0                   0                   0                   0                   0                   0
                   2                   8                   0                   0                   0                   0                   0                   0
                   3                   1                   0                   0                   0                   0                   0                   0
                   3                   2                   0                   0                   0                   0                   0                   0
                   3                   3                   0                   0                   0                   0                   0                   0
                   3                   4                   0                   0                   0                   0                   0                   0
                   3                   5                   0                   0                   0                   0                   0                   0
                   3                   6                   0                   0                   0                   0                   0                   0
                   3                   7                   0                   0                   0                   0                   0                   0
                   3                   8                   0                   0                   0                   0                   0                   0

***** Reaction Force Data ******
              NodeNo           Magnitude             X Force             Y Force             Z Force----------------------------------------------------------------------------------------------------
                   1         26.56868684               -25.8                -4.3         4.665310302
                   2     1.095796312e-13     9.592326933e-14     5.240252676e-14    -7.771561172e-15
                   3     1.592671329e-13     7.993605777e-14     1.376676551e-13     4.884981308e-15
                   4     1.301344059e-13     5.301314943e-14     9.414691249e-14     7.253225798e-14
                   5         26.56868684               -25.8                -4.3        -4.665310302
                   6     1.353228433e-13     9.237055565e-14     9.769962617e-14     1.532107774e-14
                   7     1.650728039e-13     5.329070518e-14     1.243449788e-13     -9.45910017e-14
                   8      7.40754715e-14     7.172040739e-14     1.509903313e-14    -1.074140776e-14
                   9         26.56868684                25.8                -4.3        -4.665310302
                  10     5.412789856e-14     4.618527782e-14     2.753353101e-14    -6.217248938e-15
                  11     1.835685871e-13    -1.367794766e-13    -1.048050535e-13      6.32827124e-14
                  12     2.452532811e-13     -9.44799794e-14    -2.220446049e-13     4.380523722e-14
                  13         26.56868684                25.8                -4.3         4.665310302
                  14     4.452478814e-14     2.842170943e-14    -3.019806627e-14    -1.620925616e-14
                  15     1.353201563e-13    -1.030286967e-13    -5.773159728e-14    -6.605826997e-14
                  16     1.661346719e-13    -2.220446049e-15    -1.660893645e-13    -3.181482855e-15

*Increment 44

***** Displacement Data ******
              NodeNo           Magnitude      X Displacement      Y Displacement      Z Displacement
----------------------------------------------------------------------------------------------------
                   1                   0                   0                   0                   0
                   2      0.002239048642      0.001463020558       0.00168092532     -0.000217714809
                   3      0.006225332904      0.002387129026      0.005748979665    -7.495054574e-05
                   4       0.01137699622      0.002698316589       0.01105233004    -3.363449595e-05
                   5                   0                   0                   0                   0
                   6      0.002239048642      0.001463020558       0.00168092532      0.000217714809
                   7      0.006225332904      0.002387129026      0.005748979665     7.495054574e-05
                   8       0.01137699622      0.002698316589       0.01105233004     3.363449595e-05
                   9                   0                   0                   0                   0
                  10      0.002239048642     -0.001463020558       0.00168092532      0.000217714809
                  11      0.006225332904     -0.002387129026      0.005748979665     7.495054574e-05
                  12       0.01137699622     -0.002698316589       0.01105233004     3.363449595e-05
                  13                   0                   0                   0                   0
                  14      0.002239048642     -0.001463020558       0.00168092532     -0.000217714809
                  15      0.006225332904     -0.002387129026      0.005748979665    -7.495054574e-05
                  16       0.01137699622     -0.002698316589       0.01105233004    -3.363449595e-05

***** Stress Data ******
          Element No         Integral No           Stress XX           Stress YY           Stress ZZ           Stress XY           Stress XZ           Stress YZ               Mises            YieldFlg
                   1                   1          88.1043975        -48.34315303        -39.76124447         85.82377526        -5.861552549         4.290954277            199.4394               False
                   1                   2          80.2889941        -56.15855643        -24.13043768        -50.62377526        -5.861552549         16.01405937         154.3836119               False
                   1                   3         -80.2889941         56.15855643         24.13043768        -50.62377526         5.861552549         16.01405937         154.3836119               False
                   1                   4         -88.1043975         48.34315303         39.76124447         85.82377526         5.861552549         4.290954277            199.4394               False
                   1                   5          88.1043975        -48.34315303        -39.76124447         85.82377526         5.861552549        -4.290954277            199.4394               False
                   1                   6          80.2889941        -56.15855643        -24.13043768        -50.62377526         5.861552549        -16.01405937         154.3836119               False
                   1                   7         -80.2889941         56.15855643         24.13043768        -50.62377526        -5.861552549        -16.01405937         154.3836119               False
                   1                   8         -88.1043975         48.34315303         39.76124447         85.82377526        -5.861552549        -4.290954277            199.4394               False
                   2                   1         45.79669431        -40.38961135        -5.407082965         60.69315283          3.84365324         17.49126419         132.8531975               False
                   2                   2          50.9215653        -35.26474036        -15.65682494        -25.49315283          3.84365324         9.803957712         91.67874418               False
                   2                   3         -50.9215653         35.26474036         15.65682494        -25.49315283         -3.84365324         9.803957712         91.67874418               False
                   2                   4        -45.79669431         40.38961135         5.407082965         60.69315283         -3.84365324         17.49126419         132.8531975               False
                   2                   5         45.79669431        -40.38961135        -5.407082965         60.69315283         -3.84365324        -17.49126419         132.8531975               False
                   2                   6          50.9215653        -35.26474036        -15.65682494        -25.49315283         -3.84365324        -9.803957712         91.67874418               False
                   2                   7         -50.9215653         35.26474036         15.65682494        -25.49315283          3.84365324        -9.803957712         91.67874418               False
                   2                   8        -45.79669431         40.38961135         5.407082965         60.69315283          3.84365324        -17.49126419         132.8531975               False
                   3                   1         15.23118298        -13.79149923         -1.43968375         32.11134111         1.112355187         6.175907741         62.03186929               False
                   3                   2         16.71432323        -12.30835898        -4.405964248         3.088658893         1.112355187         3.951197367         27.46966617               False
                   3                   3        -16.71432323         12.30835898         4.405964248         3.088658893        -1.112355187         3.951197367         27.46966617               False
                   3                   4        -15.23118298         13.79149923          1.43968375         32.11134111        -1.112355187         6.175907741         62.03186929               False
                   3                   5         15.23118298        -13.79149923         -1.43968375         32.11134111        -1.112355187        -6.175907741         62.03186929               False
                   3                   6         16.71432323        -12.30835898        -4.405964248         3.088658893        -1.112355187        -3.951197367         27.46966617               False
                   3                   7        -16.71432323         12.30835898         4.405964248         3.088658893         1.112355187        -3.951197367         27.46966617               False
                   3                   8        -15.23118298         13.79149923          1.43968375         32.11134111         1.112355187        -6.175907741         62.03186929               False

***** Strain Data ******
          Element No         Integral No           Strain XX           Strain YY           Strain ZZ           Strain XY           Strain XZ           Strain YZ
                   1                   1      0.000545408175    -0.0002992671378    -0.0002461410372      0.001062580075    -7.257160298e-05     5.312610057e-05
                   1                   2     0.0004970271064    -0.0003476482064    -0.0001493788999    -0.0006267705509    -7.257160298e-05     0.0001982693065
                   1                   3    -0.0004970271064     0.0003476482064     0.0001493788999    -0.0006267705509     7.257160298e-05     0.0001982693065
                   1                   4     -0.000545408175     0.0002992671378     0.0002461410372      0.001062580075     7.257160298e-05     5.312610057e-05
                   1                   5      0.000545408175    -0.0002992671378    -0.0002461410372      0.001062580075     7.257160298e-05    -5.312610057e-05
                   1                   6     0.0004970271064    -0.0003476482064    -0.0001493788999    -0.0006267705509     7.257160298e-05    -0.0001982693065
                   1                   7    -0.0004970271064     0.0003476482064     0.0001493788999    -0.0006267705509    -7.257160298e-05    -0.0001982693065
                   1                   8     -0.000545408175     0.0002992671378     0.0002461410372      0.001062580075    -7.257160298e-05    -5.312610057e-05
                   2                   1     0.0002835033458    -0.0002500309274    -3.347241835e-05     0.0007514390351     4.758808774e-05      0.000216558509
                   2                   2     0.0003152287376    -0.0002183055356      -9.6923202e-05    -0.0003156295113     4.758808774e-05     0.0001213823336
                   2                   3    -0.0003152287376     0.0002183055356       9.6923202e-05    -0.0003156295113    -4.758808774e-05     0.0001213823336
                   2                   4    -0.0002835033458     0.0002500309274     3.347241835e-05     0.0007514390351    -4.758808774e-05      0.000216558509
                   2                   5     0.0002835033458    -0.0002500309274    -3.347241835e-05     0.0007514390351    -4.758808774e-05     -0.000216558509
                   2                   6     0.0003152287376    -0.0002183055356      -9.6923202e-05    -0.0003156295113    -4.758808774e-05    -0.0001213823336
                   2                   7    -0.0003152287376     0.0002183055356       9.6923202e-05    -0.0003156295113     4.758808774e-05    -0.0001213823336
                   2                   8    -0.0002835033458     0.0002500309274     3.347241835e-05     0.0007514390351     4.758808774e-05     -0.000216558509
                   3                   1      9.42882756e-05    -8.537594762e-05    -8.912327979e-06     0.0003975689851      1.37720166e-05     7.646361965e-05
                   3                   2       0.00010346962    -7.619460323e-05    -2.727501677e-05     3.824053868e-05      1.37720166e-05     4.891958645e-05
                   3                   3      -0.00010346962     7.619460323e-05     2.727501677e-05     3.824053868e-05     -1.37720166e-05     4.891958645e-05
                   3                   4     -9.42882756e-05     8.537594762e-05     8.912327979e-06     0.0003975689851     -1.37720166e-05     7.646361965e-05
                   3                   5      9.42882756e-05    -8.537594762e-05    -8.912327979e-06     0.0003975689851     -1.37720166e-05    -7.646361965e-05
                   3                   6       0.00010346962    -7.619460323e-05    -2.727501677e-05     3.824053868e-05     -1.37720166e-05    -4.891958645e-05
                   3                   7      -0.00010346962     7.619460323e-05     2.727501677e-05     3.824053868e-05      1.37720166e-05    -4.891958645e-05
                   3                   8     -9.42882756e-05     8.537594762e-05     8.912327979e-06     0.0003975689851      1.37720166e-05    -7.646361965e-05

***** Plastic Strain Data ******
          Element No         Integral No          PStrain XX          PStrain YY          PStrain ZZ          PStrain XY          PStrain XZ          PStrain YZ
                   1                   1                   0                   0                   0                   0                   0                   0
                   1                   2                   0                   0                   0                   0                   0                   0
                   1                   3                   0                   0                   0                   0                   0                   0
                   1                   4                   0                   0                   0                   0                   0                   0
                   1                   5                   0                   0                   0                   0                   0                   0
                   1                   6                   0                   0                   0                   0                   0                   0
                   1                   7                   0                   0                   0                   0                   0                   0
                   1                   8                   0                   0                   0                   0                   0                   0
                   2                   1                   0                   0                   0                   0                   0                   0
                   2                   2                   0                   0                   0                   0                   0                   0
                   2                   3                   0                   0                   0                   0                   0                   0
                   2                   4                   0                   0                   0                   0                   0                   0
                   2                   5                   0                   0                   0                   0                   0                   0
                   2                   6                   0                   0                   0                   0                   0                   0
                   2                   7                   0                   0                   0                   0                   0                   0
                   2                   8                   0                   0                   0                   0                   0                   0
                   3                   1                   0                   0                   0                   0                   0                   0
                   3                   2                   0                   0                   0                   0                   0                   0
                   3                   3                   0                   0                   0                   0                   0                   0
                   3                   4                   0                   0                   0                   0                   0                   0
                   3                   5                   0                   0                   0                   0                   0                   0
                   3                   6                   0                   0                   0                   0                   0                   0
                   3                   7                   0                   0                   0                   0                   0                   0
                   3                   8                   0                   0                   0                   0                   0                   0

***** Reaction Force Data ******
              NodeNo           Magnitude             X Force             Y Force             Z Force----------------------------------------------------------------------------------------------------
                   1         27.18656327               -26.4                -4.4          4.77380589
                   2     7.841790594e-14      6.75015599e-14     3.286260153e-14     -2.26485497e-14
                   3     1.480463566e-13     1.012523398e-13     1.074695888e-13    -1.076916334e-14
                   4     1.204378264e-13     4.568567746e-14     8.260059303e-14     7.480127628e-14
                   5         27.18656327               -26.4                -4.4         -4.77380589
                   6     1.045073166e-13     7.105427358e-14     6.483702464e-14     4.085620731e-14
                   7      1.08456232e-13     5.506706202e-14     6.483702464e-14    -6.727951529e-14
                   8     5.953503683e-14     4.729550085e-14     2.930988785e-14    -2.117750419e-14
                   9         27.18656327                26.4                -4.4         -4.77380589
                  10     6.013433619e-14     7.105427358e-15     5.151434834e-14    -3.019806627e-14
                  11     1.269179167e-13    -7.460698725e-14    -9.414691249e-14     4.096722961e-14
                  12     2.060218875e-13     -8.58202398e-14    -1.811883976e-13     4.744121762e-14
                  13         27.18656327                26.4                -4.4          4.77380589
                  14     9.451904439e-15     7.105427358e-15    -6.217248938e-15    -4.440892099e-16
                  15     8.504076465e-14     -4.97379915e-14    -5.062616992e-14    -4.685141164e-14
                  16     1.383469606e-13     9.547918012e-15    -1.376676551e-13    -9.815065427e-15

*Increment 45

***** Displacement Data ******
              NodeNo           Magnitude      X Displacement      Y Displacement      Z Displacement
----------------------------------------------------------------------------------------------------
                   1                   0                   0                   0                   0
                   2      0.002289936111      0.001496271025      0.001719128168    -0.0002226628728
                   3      0.006366817743      0.002441381959      0.005879638294    -7.665396723e-05
                   4       0.01163556432      0.002759641966       0.01130351936    -3.439891631e-05
                   5                   0                   0                   0                   0
                   6      0.002289936111      0.001496271025      0.001719128168     0.0002226628728
                   7      0.006366817743      0.002441381959      0.005879638294     7.665396723e-05
                   8       0.01163556432      0.002759641966       0.01130351936     3.439891631e-05
                   9                   0                   0                   0                   0
                  10      0.002289936111     -0.001496271025      0.001719128168     0.0002226628728
                  11      0.006366817743     -0.002441381959      0.005879638294     7.665396723e-05
                  12       0.01163556432     -0.002759641966       0.01130351936     3.439891631e-05
                  13                   0                   0                   0                   0
                  14      0.002289936111     -0.001496271025      0.001719128168    -0.0002226628728
                  15      0.006366817743     -0.002441381959      0.005879638294    -7.665396723e-05
                  16       0.01163556432     -0.002759641966       0.01130351936    -3.439891631e-05

***** Stress Data ******
          Element No         Integral No           Stress XX           Stress YY           Stress ZZ           Stress XY           Stress XZ           Stress YZ               Mises            YieldFlg
                   1                   1         90.10677017        -49.44186105        -40.66490912         87.77431561        -5.994769652         4.388475965         203.9721136               False
                   1                   2         82.11374397        -57.43488725        -24.67885672        -51.77431561        -5.994769652         16.37801527         157.8923304               False
                   1                   3        -82.11374397         57.43488725         24.67885672        -51.77431561         5.994769652         16.37801527         157.8923304               False
                   1                   4        -90.10677017         49.44186105         40.66490912         87.77431561         5.994769652         4.388475965         203.9721136               False
                   1                   5         90.10677017        -49.44186105        -40.66490912         87.77431561         5.994769652        -4.388475965         203.9721136               False
                   1                   6         82.11374397        -57.43488725        -24.67885672        -51.77431561         5.994769652        -16.37801527         157.8923304               False
                   1                   7        -82.11374397         57.43488725         24.67885672        -51.77431561        -5.994769652        -16.37801527         157.8923304               False
                   1                   8        -90.10677017         49.44186105         40.66490912         87.77431561        -5.994769652        -4.388475965         203.9721136               False
                   2                   1         46.83752828        -41.30755706        -5.529971214         62.07254267         3.931008996         17.88879292         135.8725883               False
                   2                   2          52.0788736        -36.06621173        -16.01266187        -26.07254267         3.931008996         10.02677493           93.762352               False
                   2                   3         -52.0788736         36.06621173         16.01266187        -26.07254267        -3.931008996         10.02677493           93.762352               False
                   2                   4        -46.83752828         41.30755706         5.529971214         62.07254267        -3.931008996         17.88879292         135.8725883               False
                   2                   5         46.83752828        -41.30755706        -5.529971214         62.07254267        -3.931008996        -17.88879292         135.8725883               False
                   2                   6          52.0788736        -36.06621173        -16.01266187        -26.07254267        -3.931008996        -10.02677493           93.762352               False
                   2                   7         -52.0788736         36.06621173         16.01266187        -26.07254267         3.931008996        -10.02677493           93.762352               False
                   2                   8        -46.83752828         41.30755706         5.529971214         62.07254267         3.931008996        -17.88879292         135.8725883               False
                   3                   1         15.57734623         -14.1049424        -1.472403836         32.84114431         1.137635986          6.31626928          63.4416845               False
                   3                   2         17.09419421        -12.58809441        -4.506099799         3.158855686         1.137635986         4.040997308         28.09397677               False
                   3                   3        -17.09419421         12.58809441         4.506099799         3.158855686        -1.137635986         4.040997308         28.09397677               False
                   3                   4        -15.57734623          14.1049424         1.472403836         32.84114431        -1.137635986          6.31626928          63.4416845               False
                   3                   5         15.57734623         -14.1049424        -1.472403836         32.84114431        -1.137635986         -6.31626928          63.4416845               False
                   3                   6         17.09419421        -12.58809441        -4.506099799         3.158855686        -1.137635986        -4.040997308         28.09397677               False
                   3                   7        -17.09419421         12.58809441         4.506099799         3.158855686         1.137635986        -4.040997308         28.09397677               False
                   3                   8        -15.57734623          14.1049424         1.472403836         32.84114431         1.137635986         -6.31626928          63.4416845               False

***** Strain Data ******
          Element No         Integral No           Strain XX           Strain YY           Strain ZZ           Strain XY           Strain XZ           Strain YZ
                   1                   1     0.0005578038153    -0.0003060686636    -0.0002517351517      0.001086729622     -7.42209576e-05     5.433351195e-05
                   1                   2     0.0005083231769     -0.000355549302    -0.0001527738749    -0.0006410153361     -7.42209576e-05     0.0002027754271
                   1                   3    -0.0005083231769      0.000355549302     0.0001527738749    -0.0006410153361      7.42209576e-05     0.0002027754271
                   1                   4    -0.0005578038153     0.0003060686636     0.0002517351517      0.001086729622      7.42209576e-05     5.433351195e-05
                   1                   5     0.0005578038153    -0.0003060686636    -0.0002517351517      0.001086729622      7.42209576e-05    -5.433351195e-05
                   1                   6     0.0005083231769     -0.000355549302    -0.0001527738749    -0.0006410153361      7.42209576e-05    -0.0002027754271
                   1                   7    -0.0005083231769      0.000355549302     0.0001527738749    -0.0006410153361     -7.42209576e-05    -0.0002027754271
                   1                   8    -0.0005578038153     0.0003060686636     0.0002517351517      0.001086729622     -7.42209576e-05    -5.433351195e-05
                   2                   1     0.0002899466036    -0.0002557134485    -3.423315513e-05     0.0007685171949     4.866963519e-05     0.0002214802933
                   2                   2     0.0003223930271     -0.000223267025    -9.912600205e-05    -0.0003228029092     4.866963519e-05      0.000124141023
                   2                   3    -0.0003223930271      0.000223267025     9.912600205e-05    -0.0003228029092    -4.866963519e-05      0.000124141023
                   2                   4    -0.0002899466036     0.0002557134485     3.423315513e-05     0.0007685171949    -4.866963519e-05     0.0002214802933
                   2                   5     0.0002899466036    -0.0002557134485    -3.423315513e-05     0.0007685171949    -4.866963519e-05    -0.0002214802933
                   2                   6     0.0003223930271     -0.000223267025    -9.912600205e-05    -0.0003228029092    -4.866963519e-05     -0.000124141023
                   2                   7    -0.0003223930271      0.000223267025     9.912600205e-05    -0.0003228029092     4.866963519e-05     -0.000124141023
                   2                   8    -0.0002899466036     0.0002557134485     3.423315513e-05     0.0007685171949     4.866963519e-05    -0.0002214802933
                   3                   1     9.643119096e-05    -8.731631007e-05    -9.114880887e-06     0.0004066046439     1.408501697e-05     7.820142918e-05
                   3                   2     0.0001058212023    -7.792629875e-05    -2.789490352e-05     3.910964183e-05     1.408501697e-05     5.003139524e-05
                   3                   3    -0.0001058212023     7.792629875e-05     2.789490352e-05     3.910964183e-05    -1.408501697e-05     5.003139524e-05
                   3                   4    -9.643119096e-05     8.731631007e-05     9.114880887e-06     0.0004066046439    -1.408501697e-05     7.820142918e-05
                   3                   5     9.643119096e-05    -8.731631007e-05    -9.114880887e-06     0.0004066046439    -1.408501697e-05    -7.820142918e-05
                   3                   6     0.0001058212023    -7.792629875e-05    -2.789490352e-05     3.910964183e-05    -1.408501697e-05    -5.003139524e-05
                   3                   7    -0.0001058212023     7.792629875e-05     2.789490352e-05     3.910964183e-05     1.408501697e-05    -5.003139524e-05
                   3                   8    -9.643119096e-05     8.731631007e-05     9.114880887e-06     0.0004066046439     1.408501697e-05    -7.820142918e-05

***** Plastic Strain Data ******
          Element No         Integral No          PStrain XX          PStrain YY          PStrain ZZ          PStrain XY          PStrain XZ          PStrain YZ
                   1                   1                   0                   0                   0                   0                   0                   0
                   1                   2                   0                   0                   0                   0                   0                   0
                   1                   3                   0                   0                   0                   0                   0                   0
                   1                   4                   0                   0                   0                   0                   0                   0
                   1                   5                   0                   0                   0                   0                   0                   0
                   1                   6                   0                   0                   0                   0                   0                   0
                   1                   7                   0                   0                   0                   0                   0                   0
                   1                   8                   0                   0                   0                   0                   0                   0
                   2                   1                   0                   0                   0                   0                   0                   0
                   2                   2                   0                   0                   0                   0                   0                   0
                   2                   3                   0                   0                   0                   0                   0                   0
                   2                   4                   0                   0                   0                   0                   0                   0
                   2                   5                   0                   0                   0                   0                   0                   0
                   2                   6                   0                   0                   0                   0                   0                   0
                   2                   7                   0                   0                   0                   0                   0                   0
                   2                   8                   0                   0                   0                   0                   0                   0
                   3                   1                   0                   0                   0                   0                   0                   0
                   3                   2                   0                   0                   0                   0                   0                   0
                   3                   3                   0                   0                   0                   0                   0                   0
                   3                   4                   0                   0                   0                   0                   0                   0
                   3                   5                   0                   0                   0                   0                   0                   0
                   3                   6                   0                   0                   0                   0                   0                   0
                   3                   7                   0                   0                   0                   0                   0                   0
                   3                   8                   0                   0                   0                   0                   0                   0

***** Reaction Force Data ******
              NodeNo           Magnitude             X Force             Y Force             Z Force----------------------------------------------------------------------------------------------------
                   1         27.80443971                 -27                -4.5         4.882301479
                   2     9.984825198e-14     9.237055565e-14     2.842170943e-14    -2.509104036e-14
                   3     1.956619967e-13     1.509903313e-13     1.243449788e-13     4.884981308e-15
                   4      1.16910361e-13     3.069766663e-14     6.572520306e-14     9.168360515e-14
                   5         27.80443971                 -27                -4.5        -4.882301479
                   6     1.309912622e-13     9.592326933e-14     8.082423619e-14     3.774758284e-14
                   7     1.919793917e-13     8.704148513e-14     1.350031198e-13    -1.051381204e-13
                   8     8.058139134e-14     6.261657859e-14     3.641531521e-14    -3.530509218e-14
                   9         27.80443971                  27                -4.5        -4.882301479
                  10     7.728970506e-14     3.552713679e-14     6.217248938e-14    -2.908784325e-14
                  11     1.620585289e-13    -1.243449788e-13    -7.815970093e-14     6.850076062e-14
                  12     2.829695363e-13    -1.452726828e-13    -2.344791028e-13     6.314393453e-14
                  13         27.80443971                  27                -4.5         4.882301479
                  14     1.904024395e-14     1.776356839e-14    -6.217248938e-15     2.886579864e-15
                  15     1.261996914e-13    -7.815970093e-14    -7.105427358e-14    -6.905587213e-14
                  16     1.857327047e-13    -1.831867991e-14    -1.847411113e-13    -5.637851297e-15

*Increment 46

***** Displacement Data ******
              NodeNo           Magnitude      X Displacement      Y Displacement      Z Displacement
----------------------------------------------------------------------------------------------------
                   1                   0                   0                   0                   0
                   2       0.00234082358      0.001529521492      0.001757331016    -0.0002276109366
                   3      0.006508302582      0.002495634891      0.006010296923    -7.835738873e-05
                   4       0.01189413242      0.002820967343       0.01155470868    -3.516333668e-05
                   5                   0                   0                   0                   0
                   6       0.00234082358      0.001529521492      0.001757331016     0.0002276109366
                   7      0.006508302582      0.002495634891      0.006010296923     7.835738873e-05
                   8       0.01189413242      0.002820967343       0.01155470868     3.516333668e-05
                   9                   0                   0                   0                   0
                  10       0.00234082358     -0.001529521492      0.001757331016     0.0002276109366
                  11      0.006508302582     -0.002495634891      0.006010296923     7.835738873e-05
                  12       0.01189413242     -0.002820967343       0.01155470868     3.516333668e-05
                  13                   0                   0                   0                   0
                  14       0.00234082358     -0.001529521492      0.001757331016    -0.0002276109366
                  15      0.006508302582     -0.002495634891      0.006010296923    -7.835738873e-05
                  16       0.01189413242     -0.002820967343       0.01155470868    -3.516333668e-05

***** Stress Data ******
          Element No         Integral No           Stress XX           Stress YY           Stress ZZ           Stress XY           Stress XZ           Stress YZ               Mises            YieldFlg
                   1                   1         92.10914284        -50.54056907        -41.56857377         89.72485596        -6.127986755         4.485997653         208.5048272               False
                   1                   2         83.93849383        -58.71121808        -25.22727575        -52.92485596        -6.127986755         16.74197116         161.4010489               False
                   1                   3        -83.93849383         58.71121808         25.22727575        -52.92485596         6.127986755         16.74197116         161.4010489               False
                   1                   4        -92.10914284         50.54056907         41.56857377         89.72485596         6.127986755         4.485997653         208.5048272               False
                   1                   5         92.10914284        -50.54056907        -41.56857377         89.72485596         6.127986755        -4.485997653         208.5048272               False
                   1                   6         83.93849383        -58.71121808        -25.22727575        -52.92485596         6.127986755        -16.74197116         161.4010489               False
                   1                   7        -83.93849383         58.71121808         25.22727575        -52.92485596        -6.127986755        -16.74197116         161.4010489               False
                   1                   8        -92.10914284         50.54056907         41.56857377         89.72485596        -6.127986755        -4.485997653         208.5048272               False
                   2                   1         47.87836224        -42.22550277        -5.652859463         63.45193251         4.018364751         18.28632166         138.8919792               False
                   2                   2         53.23618191        -36.86768311         -16.3684988        -26.65193251         4.018364751         10.24959215         95.84595982               False
                   2                   3        -53.23618191         36.86768311          16.3684988        -26.65193251        -4.018364751         10.24959215         95.84595982               False
                   2                   4        -47.87836224         42.22550277         5.652859463         63.45193251        -4.018364751         18.28632166         138.8919792               False
                   2                   5         47.87836224        -42.22550277        -5.652859463         63.45193251        -4.018364751        -18.28632166         138.8919792               False
                   2                   6         53.23618191        -36.86768311         -16.3684988        -26.65193251        -4.018364751        -10.24959215         95.84595982               False
                   2                   7        -53.23618191         36.86768311          16.3684988        -26.65193251         4.018364751        -10.24959215         95.84595982               False
                   2                   8        -47.87836224         42.22550277         5.652859463         63.45193251         4.018364751        -18.28632166         138.8919792               False
                   3                   1         15.92350948        -14.41838556        -1.505123921         33.57094752         1.162916786          6.45663082         64.85149971               False
                   3                   2          17.4740652        -12.86782985         -4.60623535         3.229052479         1.162916786         4.130797248         28.71828736               False
                   3                   3         -17.4740652         12.86782985          4.60623535         3.229052479        -1.162916786         4.130797248         28.71828736               False
                   3                   4        -15.92350948         14.41838556         1.505123921         33.57094752        -1.162916786          6.45663082         64.85149971               False
                   3                   5         15.92350948        -14.41838556        -1.505123921         33.57094752        -1.162916786         -6.45663082         64.85149971               False
                   3                   6          17.4740652        -12.86782985         -4.60623535         3.229052479        -1.162916786        -4.130797248         28.71828736               False
                   3                   7         -17.4740652         12.86782985          4.60623535         3.229052479         1.162916786        -4.130797248         28.71828736               False
                   3                   8        -15.92350948         14.41838556         1.505123921         33.57094752         1.162916786         -6.45663082         64.85149971               False

***** Strain Data ******
          Element No         Integral No           Strain XX           Strain YY           Strain ZZ           Strain XY           Strain XZ           Strain YZ
                   1                   1     0.0005701994557    -0.0003128701895    -0.0002573292662      0.001110879169    -7.587031221e-05     5.554092332e-05
                   1                   2     0.0005196192475    -0.0003634503976    -0.0001561688499    -0.0006552601214    -7.587031221e-05     0.0002072815477
                   1                   3    -0.0005196192475     0.0003634503976     0.0001561688499    -0.0006552601214     7.587031221e-05     0.0002072815477
                   1                   4    -0.0005701994557     0.0003128701895     0.0002573292662      0.001110879169     7.587031221e-05     5.554092332e-05
                   1                   5     0.0005701994557    -0.0003128701895    -0.0002573292662      0.001110879169     7.587031221e-05    -5.554092332e-05
                   1                   6     0.0005196192475    -0.0003634503976    -0.0001561688499    -0.0006552601214     7.587031221e-05    -0.0002072815477
                   1                   7    -0.0005196192475     0.0003634503976     0.0001561688499    -0.0006552601214    -7.587031221e-05    -0.0002072815477
                   1                   8    -0.0005701994557     0.0003128701895     0.0002573292662      0.001110879169    -7.587031221e-05    -5.554092332e-05
                   2                   1     0.0002963898615    -0.0002613959696    -3.499389191e-05     0.0007855953548     4.975118263e-05     0.0002264020776
                   2                   2     0.0003295573166    -0.0002282285145    -0.0001013288021    -0.0003299763072     4.975118263e-05     0.0001268997124
                   2                   3    -0.0003295573166     0.0002282285145     0.0001013288021    -0.0003299763072    -4.975118263e-05     0.0001268997124
                   2                   4    -0.0002963898615     0.0002613959696     3.499389191e-05     0.0007855953548    -4.975118263e-05     0.0002264020776
                   2                   5     0.0002963898615    -0.0002613959696    -3.499389191e-05     0.0007855953548    -4.975118263e-05    -0.0002264020776
                   2                   6     0.0003295573166    -0.0002282285145    -0.0001013288021    -0.0003299763072    -4.975118263e-05    -0.0001268997124
                   2                   7    -0.0003295573166     0.0002282285145     0.0001013288021    -0.0003299763072     4.975118263e-05    -0.0001268997124
                   2                   8    -0.0002963898615     0.0002613959696     3.499389191e-05     0.0007855953548     4.975118263e-05    -0.0002264020776
                   3                   1     9.857410631e-05    -8.925667252e-05    -9.317433796e-06     0.0004156403026     1.439801735e-05     7.993923872e-05
                   3                   2     0.0001081727845    -7.965799428e-05    -2.851479026e-05     3.997874498e-05     1.439801735e-05     5.114320402e-05
                   3                   3    -0.0001081727845     7.965799428e-05     2.851479026e-05     3.997874498e-05    -1.439801735e-05     5.114320402e-05
                   3                   4    -9.857410631e-05     8.925667252e-05     9.317433796e-06     0.0004156403026    -1.439801735e-05     7.993923872e-05
                   3                   5     9.857410631e-05    -8.925667252e-05    -9.317433796e-06     0.0004156403026    -1.439801735e-05    -7.993923872e-05
                   3                   6     0.0001081727845    -7.965799428e-05    -2.851479026e-05     3.997874498e-05    -1.439801735e-05    -5.114320402e-05
                   3                   7    -0.0001081727845     7.965799428e-05     2.851479026e-05     3.997874498e-05     1.439801735e-05    -5.114320402e-05
                   3                   8    -9.857410631e-05     8.925667252e-05     9.317433796e-06     0.0004156403026     1.439801735e-05    -7.993923872e-05

***** Plastic Strain Data ******
          Element No         Integral No          PStrain XX          PStrain YY          PStrain ZZ          PStrain XY          PStrain XZ          PStrain YZ
                   1                   1                   0                   0                   0                   0                   0                   0
                   1                   2                   0                   0                   0                   0                   0                   0
                   1                   3                   0                   0                   0                   0                   0                   0
                   1                   4                   0                   0                   0                   0                   0                   0
                   1                   5                   0                   0                   0                   0                   0                   0
                   1                   6                   0                   0                   0                   0                   0                   0
                   1                   7                   0                   0                   0                   0                   0                   0
                   1                   8                   0                   0                   0                   0                   0                   0
                   2                   1                   0                   0                   0                   0                   0                   0
                   2                   2                   0                   0                   0                   0                   0                   0
                   2                   3                   0                   0                   0                   0                   0                   0
                   2                   4                   0                   0                   0                   0                   0                   0
                   2                   5                   0                   0                   0                   0                   0                   0
                   2                   6                   0                   0                   0                   0                   0                   0
                   2                   7                   0                   0                   0                   0                   0                   0
                   2                   8                   0                   0                   0                   0                   0                   0
                   3                   1                   0                   0                   0                   0                   0                   0
                   3                   2                   0                   0                   0                   0                   0                   0
                   3                   3                   0                   0                   0                   0                   0                   0
                   3                   4                   0                   0                   0                   0                   0                   0
                   3                   5                   0                   0                   0                   0                   0                   0
                   3                   6                   0                   0                   0                   0                   0                   0
                   3                   7                   0                   0                   0                   0                   0                   0
                   3                   8                   0                   0                   0                   0                   0                   0

***** Reaction Force Data ******
              NodeNo           Magnitude             X Force             Y Force             Z Force----------------------------------------------------------------------------------------------------
                   1         28.42231615               -27.6                -4.6         4.990797067
                   2     8.825232587e-14     7.815970093e-14     2.930988785e-14    -2.864375404e-14
                   3     1.228443089e-13     1.065814104e-13     4.085620731e-14    -4.540812171e-14
                   4     8.988863985e-14     5.101474798e-14     5.595524044e-14     4.844041834e-14
                   5         28.42231615               -27.6                -4.6        -4.990797067
                   6     1.323879393e-13     9.237055565e-14     8.526512829e-14     4.152234112e-14
                   7     7.870784388e-14     3.730349363e-14     3.552713679e-14    -5.950795412e-14
                   8     6.170424035e-14     6.150635556e-14     8.881784197e-16     4.857225733e-15
                   9         28.42231615                27.6                -4.6        -4.990797067
                  10     7.573544049e-14     7.105427358e-15     6.838973832e-14     -3.17523785e-14
                  11     1.549993812e-13    -1.296740493e-13    -7.638334409e-14     3.708144902e-14
                  12     1.702499691e-13    -6.220024495e-14    -1.554312234e-13     3.094052792e-14
                  13         28.42231615                27.6                -4.6         4.990797067
                  14     7.354337211e-15    -3.552713679e-15     4.440892099e-15     4.662936703e-15
                  15     7.773591029e-14    -6.927791674e-14    -2.842170943e-14    -2.087219286e-14
                  16     1.094763874e-13     3.330669074e-14    -1.030286967e-13     1.615027556e-14

*Increment 47

***** Displacement Data ******
              NodeNo           Magnitude      X Displacement      Y Displacement      Z Displacement
----------------------------------------------------------------------------------------------------
                   1                   0                   0                   0                   0
                   2      0.002391711049      0.001562771959      0.001795533864    -0.0002325590005
                   3       0.00664978742      0.002549887824      0.006140955552    -8.006081022e-05
                   4       0.01215270051       0.00288229272         0.011805898    -3.592775704e-05
                   5                   0                   0                   0                   0
                   6      0.002391711049      0.001562771959      0.001795533864     0.0002325590005
                   7       0.00664978742      0.002549887824      0.006140955552     8.006081022e-05
                   8       0.01215270051       0.00288229272         0.011805898     3.592775704e-05
                   9                   0                   0                   0                   0
                  10      0.002391711049     -0.001562771959      0.001795533864     0.0002325590005
                  11       0.00664978742     -0.002549887824      0.006140955552     8.006081022e-05
                  12       0.01215270051      -0.00288229272         0.011805898     3.592775704e-05
                  13                   0                   0                   0                   0
                  14      0.002391711049     -0.001562771959      0.001795533864    -0.0002325590005
                  15       0.00664978742     -0.002549887824      0.006140955552    -8.006081022e-05
                  16       0.01215270051      -0.00288229272         0.011805898    -3.592775704e-05

***** Stress Data ******
          Element No         Integral No           Stress XX           Stress YY           Stress ZZ           Stress XY           Stress XZ           Stress YZ               Mises            YieldFlg
                   1                   1         94.11151551         -51.6392771        -42.47223842          91.6753963        -6.261203859         4.583519341         213.0375409               False
                   1                   2          85.7632437        -59.98754891        -25.77569479         -54.0753963        -6.261203859         17.10592706         164.9097673               False
                   1                   3         -85.7632437         59.98754891         25.77569479         -54.0753963         6.261203859         17.10592706         164.9097673               False
                   1                   4        -94.11151551          51.6392771         42.47223842          91.6753963         6.261203859         4.583519341         213.0375409               False
                   1                   5         94.11151551         -51.6392771        -42.47223842          91.6753963         6.261203859        -4.583519341         213.0375409               False
                   1                   6          85.7632437        -59.98754891        -25.77569479         -54.0753963         6.261203859        -17.10592706         164.9097673               False
                   1                   7         -85.7632437         59.98754891         25.77569479         -54.0753963        -6.261203859        -17.10592706         164.9097673               False
                   1                   8        -94.11151551          51.6392771         42.47223842          91.6753963        -6.261203859        -4.583519341         213.0375409               False
                   2                   1          48.9191962        -43.14344849        -5.775747712         64.83132234         4.105720507         18.68385039           141.91137               False
                   2                   2         54.39349021        -37.66915448        -16.72433573        -27.23132234         4.105720507         10.47240937         97.92956765               False
                   2                   3        -54.39349021         37.66915448         16.72433573        -27.23132234        -4.105720507         10.47240937         97.92956765               False
                   2                   4         -48.9191962         43.14344849         5.775747712         64.83132234        -4.105720507         18.68385039           141.91137               False
                   2                   5          48.9191962        -43.14344849        -5.775747712         64.83132234        -4.105720507        -18.68385039           141.91137               False
                   2                   6         54.39349021        -37.66915448        -16.72433573        -27.23132234        -4.105720507        -10.47240937         97.92956765               False
                   2                   7        -54.39349021         37.66915448         16.72433573        -27.23132234         4.105720507        -10.47240937         97.92956765               False
                   2                   8         -48.9191962         43.14344849         5.775747712         64.83132234         4.105720507        -18.68385039           141.91137               False
                   3                   1         16.26967273        -14.73182872        -1.537844006         34.30075073         1.188197586         6.596992359         66.26131492               False
                   3                   2         17.85393618        -13.14756528        -4.706370901         3.299249272         1.188197586         4.220597188         29.34259796               False
                   3                   3        -17.85393618         13.14756528         4.706370901         3.299249272        -1.188197586         4.220597188         29.34259796               False
                   3                   4        -16.26967273         14.73182872         1.537844006         34.30075073        -1.188197586         6.596992359         66.26131492               False
                   3                   5         16.26967273        -14.73182872        -1.537844006         34.30075073        -1.188197586        -6.596992359         66.26131492               False
                   3                   6         17.85393618        -13.14756528        -4.706370901         3.299249272        -1.188197586        -4.220597188         29.34259796               False
                   3                   7        -17.85393618         13.14756528         4.706370901         3.299249272         1.188197586        -4.220597188         29.34259796               False
                   3                   8        -16.26967273         14.73182872         1.537844006         34.30075073         1.188197586        -6.596992359         66.26131492               False

***** Strain Data ******
          Element No         Integral No           Strain XX           Strain YY           Strain ZZ           Strain XY           Strain XZ           Strain YZ
                   1                   1      0.000582595096    -0.0003196717154    -0.0002629233807      0.001135028716    -7.751966682e-05      5.67483347e-05
                   1                   2     0.0005309153181    -0.0003713514932    -0.0001595638249    -0.0006695049066    -7.751966682e-05     0.0002117876683
                   1                   3    -0.0005309153181     0.0003713514932     0.0001595638249    -0.0006695049066     7.751966682e-05     0.0002117876683
                   1                   4     -0.000582595096     0.0003196717154     0.0002629233807      0.001135028716     7.751966682e-05      5.67483347e-05
                   1                   5      0.000582595096    -0.0003196717154    -0.0002629233807      0.001135028716     7.751966682e-05     -5.67483347e-05
                   1                   6     0.0005309153181    -0.0003713514932    -0.0001595638249    -0.0006695049066     7.751966682e-05    -0.0002117876683
                   1                   7    -0.0005309153181     0.0003713514932     0.0001595638249    -0.0006695049066    -7.751966682e-05    -0.0002117876683
                   1                   8     -0.000582595096     0.0003196717154     0.0002629233807      0.001135028716    -7.751966682e-05     -5.67483347e-05
                   2                   1     0.0003028331193    -0.0002670784906    -3.575462869e-05     0.0008026735147     5.083273008e-05     0.0002313238619
                   2                   2     0.0003367216061    -0.0002331900039    -0.0001035316021    -0.0003371497052     5.083273008e-05     0.0001296584018
                   2                   3    -0.0003367216061     0.0002331900039     0.0001035316021    -0.0003371497052    -5.083273008e-05     0.0001296584018
                   2                   4    -0.0003028331193     0.0002670784906     3.575462869e-05     0.0008026735147    -5.083273008e-05     0.0002313238619
                   2                   5     0.0003028331193    -0.0002670784906    -3.575462869e-05     0.0008026735147    -5.083273008e-05    -0.0002313238619
                   2                   6     0.0003367216061    -0.0002331900039    -0.0001035316021    -0.0003371497052    -5.083273008e-05    -0.0001296584018
                   2                   7    -0.0003367216061     0.0002331900039     0.0001035316021    -0.0003371497052     5.083273008e-05    -0.0001296584018
                   2                   8    -0.0003028331193     0.0002670784906     3.575462869e-05     0.0008026735147     5.083273008e-05    -0.0002313238619
                   3                   1     0.0001007170217    -9.119703496e-05    -9.519986705e-06     0.0004246759614     1.471101773e-05     8.167704826e-05
                   3                   2     0.0001105243668    -8.138968981e-05    -2.913467701e-05     4.084784813e-05     1.471101773e-05      5.22550128e-05
                   3                   3    -0.0001105243668     8.138968981e-05     2.913467701e-05     4.084784813e-05    -1.471101773e-05      5.22550128e-05
                   3                   4    -0.0001007170217     9.119703496e-05     9.519986705e-06     0.0004246759614    -1.471101773e-05     8.167704826e-05
                   3                   5     0.0001007170217    -9.119703496e-05    -9.519986705e-06     0.0004246759614    -1.471101773e-05    -8.167704826e-05
                   3                   6     0.0001105243668    -8.138968981e-05    -2.913467701e-05     4.084784813e-05    -1.471101773e-05     -5.22550128e-05
                   3                   7    -0.0001105243668     8.138968981e-05     2.913467701e-05     4.084784813e-05     1.471101773e-05     -5.22550128e-05
                   3                   8    -0.0001007170217     9.119703496e-05     9.519986705e-06     0.0004246759614     1.471101773e-05    -8.167704826e-05

***** Plastic Strain Data ******
          Element No         Integral No          PStrain XX          PStrain YY          PStrain ZZ          PStrain XY          PStrain XZ          PStrain YZ
                   1                   1                   0                   0                   0                   0                   0                   0
                   1                   2                   0                   0                   0                   0                   0                   0
                   1                   3                   0                   0                   0                   0                   0                   0
                   1                   4                   0                   0                   0                   0                   0                   0
                   1                   5                   0                   0                   0                   0                   0                   0
                   1                   6                   0                   0                   0                   0                   0                   0
                   1                   7                   0                   0                   0                   0                   0                   0
                   1                   8                   0                   0                   0                   0                   0                   0
                   2                   1                   0                   0                   0                   0                   0                   0
                   2                   2                   0                   0                   0                   0                   0                   0
                   2                   3                   0                   0                   0                   0                   0                   0
                   2                   4                   0                   0                   0                   0                   0                   0
                   2                   5                   0                   0                   0                   0                   0                   0
                   2                   6                   0                   0                   0                   0                   0                   0
                   2                   7                   0                   0                   0                   0                   0                   0
                   2                   8                   0                   0                   0                   0                   0                   0
                   3                   1                   0                   0                   0                   0                   0                   0
                   3                   2                   0                   0                   0                   0                   0                   0
                   3                   3                   0                   0                   0                   0                   0                   0
                   3                   4                   0                   0                   0                   0                   0                   0
                   3                   5                   0                   0                   0                   0                   0                   0
                   3                   6                   0                   0                   0                   0                   0                   0
                   3                   7                   0                   0                   0                   0                   0                   0
                   3                   8                   0                   0                   0                   0                   0                   0

***** Reaction Force Data ******
              NodeNo           Magnitude             X Force             Y Force             Z Force----------------------------------------------------------------------------------------------------
                   1         29.04019259               -28.2                -4.7         5.099292655
                   2     7.952824411e-14     7.460698725e-14    -3.552713679e-15    -2.731148641e-14
                   3     1.521039985e-13     1.065814104e-13     1.083577672e-13     5.884182031e-15
                   4     1.575546627e-13     1.737499034e-14     1.216804435e-13     9.856698791e-14
                   5         29.04019259               -28.2                -4.7        -5.099292655
                   6      1.11785511e-13     9.237055565e-14     5.151434834e-14      3.61932706e-14
                   7     1.710684726e-13     6.217248938e-14     1.136868377e-13    -1.116884363e-13
                   8     9.032278421e-14     4.329869796e-14     7.105427358e-14    -3.513855873e-14
                   9         29.04019259                28.2                -4.7        -5.099292655
                  10     8.166201667e-14     2.842170943e-14     7.371880884e-14    -2.065014826e-14
                  11     1.665870688e-13    -1.030286967e-13    -1.003641614e-13     8.404388296e-14
                  12     2.738987144e-13    -1.164901509e-13    -2.398081733e-13     6.279005094e-14
                  13         29.04019259                28.2                -4.7         5.099292655
                  14     2.741868784e-14     2.486899575e-14     4.440892099e-15    -1.065814104e-14
                  15     1.007957782e-13    -1.421085472e-14    -6.394884622e-14     -7.66053887e-14
                  16     1.829778742e-13    -1.998401444e-15    -1.829647545e-13     8.985867606e-16

*Increment 48

***** Displacement Data ******
              NodeNo           Magnitude      X Displacement      Y Displacement      Z Displacement
----------------------------------------------------------------------------------------------------
                   1                   0                   0                   0                   0
                   2      0.002442598518      0.001596022427      0.001833736712    -0.0002375070643
                   3      0.006791272259      0.002604140756      0.006271614181    -8.176423171e-05
                   4       0.01241126861      0.002943618097       0.01205708732     -3.66921774e-05
                   5                   0                   0                   0                   0
                   6      0.002442598518      0.001596022427      0.001833736712     0.0002375070643
                   7      0.006791272259      0.002604140756      0.006271614181     8.176423171e-05
                   8       0.01241126861      0.002943618097       0.01205708732      3.66921774e-05
                   9                   0                   0                   0                   0
                  10      0.002442598518     -0.001596022427      0.001833736712     0.0002375070643
                  11      0.006791272259     -0.002604140756      0.006271614181     8.176423171e-05
                  12       0.01241126861     -0.002943618097       0.01205708732      3.66921774e-05
                  13                   0                   0                   0                   0
                  14      0.002442598518     -0.001596022427      0.001833736712    -0.0002375070643
                  15      0.006791272259     -0.002604140756      0.006271614181    -8.176423171e-05
                  16       0.01241126861     -0.002943618097       0.01205708732     -3.66921774e-05

***** Stress Data ******
          Element No         Integral No           Stress XX           Stress YY           Stress ZZ           Stress XY           Stress XZ           Stress YZ               Mises            YieldFlg
                   1                   1         96.11388818        -52.73798512        -43.37590306         93.62593665        -6.394420962         4.681041029         217.5702545               False
                   1                   2         87.58799357        -61.26387974        -26.32411383        -55.22593665        -6.394420962         17.46988295         168.4184858               False
                   1                   3        -87.58799357         61.26387974         26.32411383        -55.22593665         6.394420962         17.46988295         168.4184858               False
                   1                   4        -96.11388818         52.73798512         43.37590306         93.62593665         6.394420962         4.681041029         217.5702545               False
                   1                   5         96.11388818        -52.73798512        -43.37590306         93.62593665         6.394420962        -4.681041029         217.5702545               False
                   1                   6         87.58799357        -61.26387974        -26.32411383        -55.22593665         6.394420962        -17.46988295         168.4184858               False
                   1                   7        -87.58799357         61.26387974         26.32411383        -55.22593665        -6.394420962        -17.46988295         168.4184858               False
                   1                   8        -96.11388818         52.73798512         43.37590306         93.62593665        -6.394420962        -4.681041029         217.5702545               False
                   2                   1         49.96003016         -44.0613942        -5.898635961         66.21071218         4.193076262         19.08137912         144.9307609               False
                   2                   2         55.55079851        -38.47062585        -17.08017266        -27.81071218         4.193076262         10.69522659         100.0131755               False
                   2                   3        -55.55079851         38.47062585         17.08017266        -27.81071218        -4.193076262         10.69522659         100.0131755               False
                   2                   4        -49.96003016          44.0613942         5.898635961         66.21071218        -4.193076262         19.08137912         144.9307609               False
                   2                   5         49.96003016         -44.0613942        -5.898635961         66.21071218        -4.193076262        -19.08137912         144.9307609               False
                   2                   6         55.55079851        -38.47062585        -17.08017266        -27.81071218        -4.193076262        -10.69522659         100.0131755               False
                   2                   7        -55.55079851         38.47062585         17.08017266        -27.81071218         4.193076262        -10.69522659         100.0131755               False
                   2                   8        -49.96003016          44.0613942         5.898635961         66.21071218         4.193076262        -19.08137912         144.9307609               False
                   3                   1         16.61583598        -15.04527189        -1.570564091         35.03055393         1.213478385         6.737353899         67.67113013               False
                   3                   2         18.23380716        -13.42730071        -4.806506452         3.369446065         1.213478385         4.310397128         29.96690855               False
                   3                   3        -18.23380716         13.42730071         4.806506452         3.369446065        -1.213478385         4.310397128         29.96690855               False
                   3                   4        -16.61583598         15.04527189         1.570564091         35.03055393        -1.213478385         6.737353899         67.67113013               False
                   3                   5         16.61583598        -15.04527189        -1.570564091         35.03055393        -1.213478385        -6.737353899         67.67113013               False
                   3                   6         18.23380716        -13.42730071        -4.806506452         3.369446065        -1.213478385        -4.310397128         29.96690855               False
                   3                   7        -18.23380716         13.42730071         4.806506452         3.369446065         1.213478385        -4.310397128         29.96690855               False
                   3                   8        -16.61583598         15.04527189         1.570564091         35.03055393         1.213478385        -6.737353899         67.67113013               False

***** Strain Data ******
          Element No         Integral No           Strain XX           Strain YY           Strain ZZ           Strain XY           Strain XZ           Strain YZ
                   1                   1     0.0005949907364    -0.0003264732412    -0.0002685174951      0.001159178263    -7.916902144e-05     5.795574608e-05
                   1                   2     0.0005422113887    -0.0003792525888    -0.0001629587999    -0.0006837496919    -7.916902144e-05      0.000216293789
                   1                   3    -0.0005422113887     0.0003792525888     0.0001629587999    -0.0006837496919     7.916902144e-05      0.000216293789
                   1                   4    -0.0005949907364     0.0003264732412     0.0002685174951      0.001159178263     7.916902144e-05     5.795574608e-05
                   1                   5     0.0005949907364    -0.0003264732412    -0.0002685174951      0.001159178263     7.916902144e-05    -5.795574608e-05
                   1                   6     0.0005422113887    -0.0003792525888    -0.0001629587999    -0.0006837496919     7.916902144e-05     -0.000216293789
                   1                   7    -0.0005422113887     0.0003792525888     0.0001629587999    -0.0006837496919    -7.916902144e-05     -0.000216293789
                   1                   8    -0.0005949907364     0.0003264732412     0.0002685174951      0.001159178263    -7.916902144e-05    -5.795574608e-05
                   2                   1     0.0003092763772    -0.0002727610117    -3.651536548e-05     0.0008197516746     5.191427753e-05     0.0002362456462
                   2                   2     0.0003438858955    -0.0002381514934    -0.0001057344022    -0.0003443231032     5.191427753e-05     0.0001324170912
                   2                   3    -0.0003438858955     0.0002381514934     0.0001057344022    -0.0003443231032    -5.191427753e-05     0.0001324170912
                   2                   4    -0.0003092763772     0.0002727610117     3.651536548e-05     0.0008197516746    -5.191427753e-05     0.0002362456462
                   2                   5     0.0003092763772    -0.0002727610117    -3.651536548e-05     0.0008197516746    -5.191427753e-05    -0.0002362456462
                   2                   6     0.0003438858955    -0.0002381514934    -0.0001057344022    -0.0003443231032    -5.191427753e-05    -0.0001324170912
                   2                   7    -0.0003438858955     0.0002381514934     0.0001057344022    -0.0003443231032     5.191427753e-05    -0.0001324170912
                   2                   8    -0.0003092763772     0.0002727610117     3.651536548e-05     0.0008197516746     5.191427753e-05    -0.0002362456462
                   3                   1      0.000102859937    -9.313739741e-05    -9.722539613e-06     0.0004337116201      1.50240181e-05     8.341485779e-05
                   3                   2     0.0001128759491    -8.312138534e-05    -2.975456375e-05     4.171695128e-05      1.50240181e-05     5.336682159e-05
                   3                   3    -0.0001128759491     8.312138534e-05     2.975456375e-05     4.171695128e-05     -1.50240181e-05     5.336682159e-05
                   3                   4     -0.000102859937     9.313739741e-05     9.722539613e-06     0.0004337116201     -1.50240181e-05     8.341485779e-05
                   3                   5      0.000102859937    -9.313739741e-05    -9.722539613e-06     0.0004337116201     -1.50240181e-05    -8.341485779e-05
                   3                   6     0.0001128759491    -8.312138534e-05    -2.975456375e-05     4.171695128e-05     -1.50240181e-05    -5.336682159e-05
                   3                   7    -0.0001128759491     8.312138534e-05     2.975456375e-05     4.171695128e-05      1.50240181e-05    -5.336682159e-05
                   3                   8     -0.000102859937     9.313739741e-05     9.722539613e-06     0.0004337116201      1.50240181e-05    -8.341485779e-05

***** Plastic Strain Data ******
          Element No         Integral No          PStrain XX          PStrain YY          PStrain ZZ          PStrain XY          PStrain XZ          PStrain YZ
                   1                   1                   0                   0                   0                   0                   0                   0
                   1                   2                   0                   0                   0                   0                   0                   0
                   1                   3                   0                   0                   0                   0                   0                   0
                   1                   4                   0                   0                   0                   0                   0                   0
                   1                   5                   0                   0                   0                   0                   0                   0
                   1                   6                   0                   0                   0                   0                   0                   0
                   1                   7                   0                   0                   0                   0                   0                   0
                   1                   8                   0                   0                   0                   0                   0                   0
                   2                   1                   0                   0                   0                   0                   0                   0
                   2                   2                   0                   0                   0                   0                   0                   0
                   2                   3                   0                   0                   0                   0                   0                   0
                   2                   4                   0                   0                   0                   0                   0                   0
                   2                   5                   0                   0                   0                   0                   0                   0
                   2                   6                   0                   0                   0                   0                   0                   0
                   2                   7                   0                   0                   0                   0                   0                   0
                   2                   8                   0                   0                   0                   0                   0                   0
                   3                   1                   0                   0                   0                   0                   0                   0
                   3                   2                   0                   0                   0                   0                   0                   0
                   3                   3                   0                   0                   0                   0                   0                   0
                   3                   4                   0                   0                   0                   0                   0                   0
                   3                   5                   0                   0                   0                   0                   0                   0
                   3                   6                   0                   0                   0                   0                   0                   0
                   3                   7                   0                   0                   0                   0                   0                   0
                   3                   8                   0                   0                   0                   0                   0                   0

***** Reaction Force Data ******
              NodeNo           Magnitude             X Force             Y Force             Z Force----------------------------------------------------------------------------------------------------
                   1         29.65806903               -28.8                -4.8         5.207788244
                   2     7.478685126e-14     6.394884622e-14    -9.769962617e-15    -3.752553823e-14
                   3     1.442136547e-13     1.385558335e-13     3.996802889e-14    -1.554312234e-15
                   4      1.57720379e-13    -1.448841047e-14     1.296740493e-13     8.860273626e-14
                   5         29.65806903               -28.8                -4.8        -5.207788244
                   6     1.074255379e-13     8.526512829e-14     3.375077995e-14     5.595524044e-14
                   7     1.496475212e-13     7.105427358e-14     6.572520306e-14    -1.141309269e-13
                   8     1.294118677e-13     2.065014826e-14     1.190159082e-13      -4.6435078e-14
                   9         29.65806903                28.8                -4.8        -5.207788244
                  10     1.134508873e-13     7.105427358e-15     1.048050535e-13    -4.285460875e-14
                  11     1.462611706e-13    -7.993605777e-14    -9.503509091e-14     7.727152251e-14
                  12     2.721611899e-13    -1.140476602e-13    -2.353672812e-13     7.528005996e-14
                  13         29.65806903                28.8                -4.8         5.207788244
                  14     2.428420949e-14     1.421085472e-14     1.953992523e-14     2.442490654e-15
                  15     7.460203074e-14     7.105427358e-15    -4.352074257e-14    -6.017408793e-14
                  16     1.812675011e-13     1.321165399e-14    -1.803002192e-13     1.323594012e-14

*Increment 49

***** Displacement Data ******
              NodeNo           Magnitude      X Displacement      Y Displacement      Z Displacement
----------------------------------------------------------------------------------------------------
                   1                   0                   0                   0                   0
                   2      0.002493485987      0.001629272894       0.00187193956    -0.0002424551281
                   3      0.006932757098      0.002658393688      0.006402272809    -8.346765321e-05
                   4        0.0126698367      0.003004943474       0.01230827664    -3.745659776e-05
                   5                   0                   0                   0                   0
                   6      0.002493485987      0.001629272894       0.00187193956     0.0002424551281
                   7      0.006932757098      0.002658393688      0.006402272809     8.346765321e-05
                   8        0.0126698367      0.003004943474       0.01230827664     3.745659776e-05
                   9                   0                   0                   0                   0
                  10      0.002493485987     -0.001629272894       0.00187193956     0.0002424551281
                  11      0.006932757098     -0.002658393688      0.006402272809     8.346765321e-05
                  12        0.0126698367     -0.003004943474       0.01230827664     3.745659776e-05
                  13                   0                   0                   0                   0
                  14      0.002493485987     -0.001629272894       0.00187193956    -0.0002424551281
                  15      0.006932757098     -0.002658393688      0.006402272809    -8.346765321e-05
                  16        0.0126698367     -0.003004943474       0.01230827664    -3.745659776e-05

***** Stress Data ******
          Element No         Integral No           Stress XX           Stress YY           Stress ZZ           Stress XY           Stress XZ           Stress YZ               Mises            YieldFlg
                   1                   1         98.11626085        -53.83669314        -44.27956771           95.576477        -6.527638066         4.778562717         222.1029682               False
                   1                   2         89.41274343        -62.54021056        -26.87253287          -56.376477        -6.527638066         17.83383885         171.9272042               False
                   1                   3        -89.41274343         62.54021056         26.87253287          -56.376477         6.527638066         17.83383885         171.9272042               False
                   1                   4        -98.11626085         53.83669314         44.27956771           95.576477         6.527638066         4.778562717         222.1029682               False
                   1                   5         98.11626085        -53.83669314        -44.27956771           95.576477         6.527638066        -4.778562717         222.1029682               False
                   1                   6         89.41274343        -62.54021056        -26.87253287          -56.376477         6.527638066        -17.83383885         171.9272042               False
                   1                   7        -89.41274343         62.54021056         26.87253287          -56.376477        -6.527638066        -17.83383885         171.9272042               False
                   1                   8        -98.11626085         53.83669314         44.27956771           95.576477        -6.527638066        -4.778562717         222.1029682               False
                   2                   1         51.00086412        -44.97933991        -6.021524211         67.59010202         4.280432018         19.47890785         147.9501517               False
                   2                   2         56.70810681        -39.27209722        -17.43600959        -28.39010202         4.280432018         10.91804382         102.0967833               False
                   2                   3        -56.70810681         39.27209722         17.43600959        -28.39010202        -4.280432018         10.91804382         102.0967833               False
                   2                   4        -51.00086412         44.97933991         6.021524211         67.59010202        -4.280432018         19.47890785         147.9501517               False
                   2                   5         51.00086412        -44.97933991        -6.021524211         67.59010202        -4.280432018        -19.47890785         147.9501517               False
                   2                   6         56.70810681        -39.27209722        -17.43600959        -28.39010202        -4.280432018        -10.91804382         102.0967833               False
                   2                   7        -56.70810681         39.27209722         17.43600959        -28.39010202         4.280432018        -10.91804382         102.0967833               False
                   2                   8        -51.00086412         44.97933991         6.021524211         67.59010202         4.280432018        -19.47890785         147.9501517               False
                   3                   1         16.96199923        -15.35871505        -1.603284177         35.76035714         1.238759185         6.877715438         69.08094535               False
                   3                   2         18.61367814        -13.70703614        -4.906642004         3.439642858         1.238759185         4.400197068         30.59121915               False
                   3                   3        -18.61367814         13.70703614         4.906642004         3.439642858        -1.238759185         4.400197068         30.59121915               False
                   3                   4        -16.96199923         15.35871505         1.603284177         35.76035714        -1.238759185         6.877715438         69.08094535               False
                   3                   5         16.96199923        -15.35871505        -1.603284177         35.76035714        -1.238759185        -6.877715438         69.08094535               False
                   3                   6         18.61367814        -13.70703614        -4.906642004         3.439642858        -1.238759185        -4.400197068         30.59121915               False
                   3                   7        -18.61367814         13.70703614         4.906642004         3.439642858         1.238759185        -4.400197068         30.59121915               False
                   3                   8        -16.96199923         15.35871505         1.603284177         35.76035714         1.238759185        -6.877715438         69.08094535               False

***** Strain Data ******
          Element No         Integral No           Strain XX           Strain YY           Strain ZZ           Strain XY           Strain XZ           Strain YZ
                   1                   1     0.0006073863767    -0.0003332747671    -0.0002741116096       0.00118332781    -8.081837605e-05     5.916315745e-05
                   1                   2     0.0005535074593    -0.0003871536844    -0.0001663537749    -0.0006979944771    -8.081837605e-05     0.0002207999096
                   1                   3    -0.0005535074593     0.0003871536844     0.0001663537749    -0.0006979944771     8.081837605e-05     0.0002207999096
                   1                   4    -0.0006073863767     0.0003332747671     0.0002741116096       0.00118332781     8.081837605e-05     5.916315745e-05
                   1                   5     0.0006073863767    -0.0003332747671    -0.0002741116096       0.00118332781     8.081837605e-05    -5.916315745e-05
                   1                   6     0.0005535074593    -0.0003871536844    -0.0001663537749    -0.0006979944771     8.081837605e-05    -0.0002207999096
                   1                   7    -0.0005535074593     0.0003871536844     0.0001663537749    -0.0006979944771    -8.081837605e-05    -0.0002207999096
                   1                   8    -0.0006073863767     0.0003332747671     0.0002741116096       0.00118332781    -8.081837605e-05    -5.916315745e-05
                   2                   1      0.000315719635    -0.0002784435328    -3.727610226e-05     0.0008368298345     5.299582498e-05     0.0002411674305
                   2                   2      0.000351050185    -0.0002431129828    -0.0001079372022    -0.0003514965012     5.299582498e-05     0.0001351757806
                   2                   3     -0.000351050185     0.0002431129828     0.0001079372022    -0.0003514965012    -5.299582498e-05     0.0001351757806
                   2                   4     -0.000315719635     0.0002784435328     3.727610226e-05     0.0008368298345    -5.299582498e-05     0.0002411674305
                   2                   5      0.000315719635    -0.0002784435328    -3.727610226e-05     0.0008368298345    -5.299582498e-05    -0.0002411674305
                   2                   6      0.000351050185    -0.0002431129828    -0.0001079372022    -0.0003514965012    -5.299582498e-05    -0.0001351757806
                   2                   7     -0.000351050185     0.0002431129828     0.0001079372022    -0.0003514965012     5.299582498e-05    -0.0001351757806
                   2                   8     -0.000315719635     0.0002784435328     3.727610226e-05     0.0008368298345     5.299582498e-05    -0.0002411674305
                   3                   1     0.0001050028524    -9.507775985e-05    -9.925092522e-06     0.0004427472789     1.533701848e-05     8.515266733e-05
                   3                   2     0.0001152275314    -8.485308087e-05     -3.03744505e-05     4.258605444e-05     1.533701848e-05     5.447863037e-05
                   3                   3    -0.0001152275314     8.485308087e-05      3.03744505e-05     4.258605444e-05    -1.533701848e-05     5.447863037e-05
                   3                   4    -0.0001050028524     9.507775985e-05     9.925092522e-06     0.0004427472789    -1.533701848e-05     8.515266733e-05
                   3                   5     0.0001050028524    -9.507775985e-05    -9.925092522e-06     0.0004427472789    -1.533701848e-05    -8.515266733e-05
                   3                   6     0.0001152275314    -8.485308087e-05     -3.03744505e-05     4.258605444e-05    -1.533701848e-05    -5.447863037e-05
                   3                   7    -0.0001152275314     8.485308087e-05      3.03744505e-05     4.258605444e-05     1.533701848e-05    -5.447863037e-05
                   3                   8    -0.0001050028524     9.507775985e-05     9.925092522e-06     0.0004427472789     1.533701848e-05    -8.515266733e-05

***** Plastic Strain Data ******
          Element No         Integral No          PStrain XX          PStrain YY          PStrain ZZ          PStrain XY          PStrain XZ          PStrain YZ
                   1                   1                   0                   0                   0                   0                   0                   0
                   1                   2                   0                   0                   0                   0                   0                   0
                   1                   3                   0                   0                   0                   0                   0                   0
                   1                   4                   0                   0                   0                   0                   0                   0
                   1                   5                   0                   0                   0                   0                   0                   0
                   1                   6                   0                   0                   0                   0                   0                   0
                   1                   7                   0                   0                   0                   0                   0                   0
                   1                   8                   0                   0                   0                   0                   0                   0
                   2                   1                   0                   0                   0                   0                   0                   0
                   2                   2                   0                   0                   0                   0                   0                   0
                   2                   3                   0                   0                   0                   0                   0                   0
                   2                   4                   0                   0                   0                   0                   0                   0
                   2                   5                   0                   0                   0                   0                   0                   0
                   2                   6                   0                   0                   0                   0                   0                   0
                   2                   7                   0                   0                   0                   0                   0                   0
                   2                   8                   0                   0                   0                   0                   0                   0
                   3                   1                   0                   0                   0                   0                   0                   0
                   3                   2                   0                   0                   0                   0                   0                   0
                   3                   3                   0                   0                   0                   0                   0                   0
                   3                   4                   0                   0                   0                   0                   0                   0
                   3                   5                   0                   0                   0                   0                   0                   0
                   3                   6                   0                   0                   0                   0                   0                   0
                   3                   7                   0                   0                   0                   0                   0                   0
                   3                   8                   0                   0                   0                   0                   0                   0

***** Reaction Force Data ******
              NodeNo           Magnitude             X Force             Y Force             Z Force----------------------------------------------------------------------------------------------------
                   1         30.27594546               -29.4                -4.9         5.316283832
                   2     9.264583306e-14     8.526512829e-14    -1.776356839e-15     -3.61932706e-14
                   3     1.235845796e-13     1.154631946e-13     4.174438573e-14    -1.409983241e-14
                   4     1.259140368e-13    -5.440092821e-15     9.414691249e-14      8.34332603e-14
                   5         30.27594546               -29.4                -4.9        -5.316283832
                   6     1.231595177e-13     9.947598301e-14     4.707345624e-14     5.528910663e-14
                   7     1.349271358e-13     2.664535259e-14     8.615330671e-14    -1.003641614e-13
                   8     9.801798513e-14      2.24265051e-14     8.260059303e-14    -4.776734563e-14
                   9         30.27594546                29.4                -4.9        -5.316283832
                  10     1.235150933e-13     3.552713679e-15      1.16351373e-13    -4.130029652e-14
                  11     1.951245313e-13    -7.815970093e-14    -1.580957587e-13     8.348877145e-14
                  12      1.95957799e-13    -8.362754933e-14    -1.572075803e-13     8.180262023e-14
                  13         30.27594546                29.4                -4.9         5.316283832
                  14     3.267075311e-14     2.842170943e-14     1.598721155e-14    -1.998401444e-15
                  15     1.041481514e-13    -1.598721155e-14    -9.325873407e-14    -4.352074257e-14
                  16     1.356446658e-13     5.118128144e-14    -1.252331572e-13    -9.828943215e-15

*Increment 50

***** Displacement Data ******
              NodeNo           Magnitude      X Displacement      Y Displacement      Z Displacement
----------------------------------------------------------------------------------------------------
                   1                   0                   0                   0                   0
                   2      0.002544373457      0.001662523361      0.001910142409     -0.000247403192
                   3      0.007074241936      0.002712646621      0.006532931438     -8.51710747e-05
                   4        0.0129284048      0.003066268851       0.01255946596    -3.822101813e-05
                   5                   0                   0                   0                   0
                   6      0.002544373457      0.001662523361      0.001910142409      0.000247403192
                   7      0.007074241936      0.002712646621      0.006532931438      8.51710747e-05
                   8        0.0129284048      0.003066268851       0.01255946596     3.822101813e-05
                   9                   0                   0                   0                   0
                  10      0.002544373457     -0.001662523361      0.001910142409      0.000247403192
                  11      0.007074241936     -0.002712646621      0.006532931438      8.51710747e-05
                  12        0.0129284048     -0.003066268851       0.01255946596     3.822101813e-05
                  13                   0                   0                   0                   0
                  14      0.002544373457     -0.001662523361      0.001910142409     -0.000247403192
                  15      0.007074241936     -0.002712646621      0.006532931438     -8.51710747e-05
                  16        0.0129284048     -0.003066268851       0.01255946596    -3.822101813e-05

***** Stress Data ******
          Element No         Integral No           Stress XX           Stress YY           Stress ZZ           Stress XY           Stress XZ           Stress YZ               Mises            YieldFlg
                   1                   1         100.1186335        -54.93540117        -45.18323236         97.52701735        -6.660855169         4.876084406         226.6356818               False
                   1                   2          91.2374933        -63.81654139        -27.42095191        -57.52701735        -6.660855169         18.19779474         175.4359227               False
                   1                   3         -91.2374933         63.81654139         27.42095191        -57.52701735         6.660855169         18.19779474         175.4359227               False
                   1                   4        -100.1186335         54.93540117         45.18323236         97.52701735         6.660855169         4.876084406         226.6356818               False
                   1                   5         100.1186335        -54.93540117        -45.18323236         97.52701735         6.660855169        -4.876084406         226.6356818               False
                   1                   6          91.2374933        -63.81654139        -27.42095191        -57.52701735         6.660855169        -18.19779474         175.4359227               False
                   1                   7         -91.2374933         63.81654139         27.42095191        -57.52701735        -6.660855169        -18.19779474         175.4359227               False
                   1                   8        -100.1186335         54.93540117         45.18323236         97.52701735        -6.660855169        -4.876084406         226.6356818               False
                   2                   1         52.04169808        -45.89728562         -6.14441246         68.96949185         4.367787773         19.87643658         150.9695426               False
                   2                   2         57.86541512        -40.07356859        -17.79184652        -28.96949185         4.367787773         11.14086104         104.1803911               False
                   2                   3        -57.86541512         40.07356859         17.79184652        -28.96949185        -4.367787773         11.14086104         104.1803911               False
                   2                   4        -52.04169808         45.89728562          6.14441246         68.96949185        -4.367787773         19.87643658         150.9695426               False
                   2                   5         52.04169808        -45.89728562         -6.14441246         68.96949185        -4.367787773        -19.87643658         150.9695426               False
                   2                   6         57.86541512        -40.07356859        -17.79184652        -28.96949185        -4.367787773        -11.14086104         104.1803911               False
                   2                   7        -57.86541512         40.07356859         17.79184652        -28.96949185         4.367787773        -11.14086104         104.1803911               False
                   2                   8        -52.04169808         45.89728562          6.14441246         68.96949185         4.367787773        -19.87643658         150.9695426               False
                   3                   1         17.30816248        -15.67215822        -1.636004262         36.49016035         1.264039985         7.018076978         70.49076056               False
                   3                   2         18.99354913        -13.98677157        -5.006777555         3.509839651         1.264039985         4.489997008         31.21552974               False
                   3                   3        -18.99354913         13.98677157         5.006777555         3.509839651        -1.264039985         4.489997008         31.21552974               False
                   3                   4        -17.30816248         15.67215822         1.636004262         36.49016035        -1.264039985         7.018076978         70.49076056               False
                   3                   5         17.30816248        -15.67215822        -1.636004262         36.49016035        -1.264039985        -7.018076978         70.49076056               False
                   3                   6         18.99354913        -13.98677157        -5.006777555         3.509839651        -1.264039985        -4.489997008         31.21552974               False
                   3                   7        -18.99354913         13.98677157         5.006777555         3.509839651         1.264039985        -4.489997008         31.21552974               False
                   3                   8        -17.30816248         15.67215822         1.636004262         36.49016035         1.264039985        -7.018076978         70.49076056               False

***** Strain Data ******
          Element No         Integral No           Strain XX           Strain YY           Strain ZZ           Strain XY           Strain XZ           Strain YZ
                   1                   1     0.0006197820171    -0.0003400762929    -0.0002797057241      0.001207477358    -8.246773066e-05     6.037056883e-05
                   1                   2     0.0005648035299    -0.0003950547801    -0.0001697487499    -0.0007122392624    -8.246773066e-05     0.0002253060302
                   1                   3    -0.0005648035299     0.0003950547801     0.0001697487499    -0.0007122392624     8.246773066e-05     0.0002253060302
                   1                   4    -0.0006197820171     0.0003400762929     0.0002797057241      0.001207477358     8.246773066e-05     6.037056883e-05
                   1                   5     0.0006197820171    -0.0003400762929    -0.0002797057241      0.001207477358     8.246773066e-05    -6.037056883e-05
                   1                   6     0.0005648035299    -0.0003950547801    -0.0001697487499    -0.0007122392624     8.246773066e-05    -0.0002253060302
                   1                   7    -0.0005648035299     0.0003950547801     0.0001697487499    -0.0007122392624    -8.246773066e-05    -0.0002253060302
                   1                   8    -0.0006197820171     0.0003400762929     0.0002797057241      0.001207477358    -8.246773066e-05    -6.037056883e-05
                   2                   1     0.0003221628929    -0.0002841260539    -3.803683904e-05     0.0008539079944     5.407737243e-05     0.0002460892148
                   2                   2     0.0003582144745    -0.0002480744722    -0.0001101400023    -0.0003586698991     5.407737243e-05       0.00013793447
                   2                   3    -0.0003582144745     0.0002480744722     0.0001101400023    -0.0003586698991    -5.407737243e-05       0.00013793447
                   2                   4    -0.0003221628929     0.0002841260539     3.803683904e-05     0.0008539079944    -5.407737243e-05     0.0002460892148
                   2                   5     0.0003221628929    -0.0002841260539    -3.803683904e-05     0.0008539079944    -5.407737243e-05    -0.0002460892148
                   2                   6     0.0003582144745    -0.0002480744722    -0.0001101400023    -0.0003586698991    -5.407737243e-05      -0.00013793447
                   2                   7    -0.0003582144745     0.0002480744722     0.0001101400023    -0.0003586698991     5.407737243e-05      -0.00013793447
                   2                   8    -0.0003221628929     0.0002841260539     3.803683904e-05     0.0008539079944     5.407737243e-05    -0.0002460892148
                   3                   1     0.0001071457677     -9.70181223e-05    -1.012764543e-05     0.0004517829376     1.565001886e-05     8.689047687e-05
                   3                   2     0.0001175791136    -8.658477639e-05    -3.099433724e-05     4.345515759e-05     1.565001886e-05     5.559043915e-05
                   3                   3    -0.0001175791136     8.658477639e-05     3.099433724e-05     4.345515759e-05    -1.565001886e-05     5.559043915e-05
                   3                   4    -0.0001071457677      9.70181223e-05     1.012764543e-05     0.0004517829376    -1.565001886e-05     8.689047687e-05
                   3                   5     0.0001071457677     -9.70181223e-05    -1.012764543e-05     0.0004517829376    -1.565001886e-05    -8.689047687e-05
                   3                   6     0.0001175791136    -8.658477639e-05    -3.099433724e-05     4.345515759e-05    -1.565001886e-05    -5.559043915e-05
                   3                   7    -0.0001175791136     8.658477639e-05     3.099433724e-05     4.345515759e-05     1.565001886e-05    -5.559043915e-05
                   3                   8    -0.0001071457677      9.70181223e-05     1.012764543e-05     0.0004517829376     1.565001886e-05    -8.689047687e-05

***** Plastic Strain Data ******
          Element No         Integral No          PStrain XX          PStrain YY          PStrain ZZ          PStrain XY          PStrain XZ          PStrain YZ
                   1                   1                   0                   0                   0                   0                   0                   0
                   1                   2                   0                   0                   0                   0                   0                   0
                   1                   3                   0                   0                   0                   0                   0                   0
                   1                   4                   0                   0                   0                   0                   0                   0
                   1                   5                   0                   0                   0                   0                   0                   0
                   1                   6                   0                   0                   0                   0                   0                   0
                   1                   7                   0                   0                   0                   0                   0                   0
                   1                   8                   0                   0                   0                   0                   0                   0
                   2                   1                   0                   0                   0                   0                   0                   0
                   2                   2                   0                   0                   0                   0                   0                   0
                   2                   3                   0                   0                   0                   0                   0                   0
                   2                   4                   0                   0                   0                   0                   0                   0
                   2                   5                   0                   0                   0                   0                   0                   0
                   2                   6                   0                   0                   0                   0                   0                   0
                   2                   7                   0                   0                   0                   0                   0                   0
                   2                   8                   0                   0                   0                   0                   0                   0
                   3                   1                   0                   0                   0                   0                   0                   0
                   3                   2                   0                   0                   0                   0                   0                   0
                   3                   3                   0                   0                   0                   0                   0                   0
                   3                   4                   0                   0                   0                   0                   0                   0
                   3                   5                   0                   0                   0                   0                   0                   0
                   3                   6                   0                   0                   0                   0                   0                   0
                   3                   7                   0                   0                   0                   0                   0                   0
                   3                   8                   0                   0                   0                   0                   0                   0

***** Reaction Force Data ******
              NodeNo           Magnitude             X Force             Y Force             Z Force----------------------------------------------------------------------------------------------------
                   1          30.8938219                 -30                  -5         5.424779421
                   2     6.982552634e-14     6.039613254e-14    -3.552713679e-15    -3.486100297e-14
                   3     1.395889462e-13     1.261213356e-13     5.950795412e-14    -6.106226635e-15
                   4     1.693815164e-13    -2.137179322e-14     1.385558335e-13     9.505590759e-14
                   5          30.8938219                 -30                  -5        -5.424779421
                   6     1.144977478e-13     9.592326933e-14     3.375077995e-14     5.262457137e-14
                   7     1.440445385e-13     5.684341886e-14     8.615330671e-14    -1.004751837e-13
                   8     1.190451134e-13     1.088018564e-14     1.119104809e-13    -3.910760604e-14
                   9          30.8938219                  30                  -5        -5.424779421
                  10     1.035025623e-13    -3.552713679e-15     9.414691249e-14    -4.285460875e-14
                  11     1.556798731e-13    -4.085620731e-14    -1.172395514e-13     9.392486788e-14
                  12     2.698443776e-13    -1.317002063e-13    -2.167155344e-13     9.222483888e-14
                  13          30.8938219                  30                  -5         5.424779421
                  14     1.355745518e-14     1.065814104e-14     4.440892099e-15    -7.105427358e-15
                  15     1.062851705e-13     3.019806627e-14    -7.283063042e-14    -7.127631818e-14
                  16     1.773463094e-13     1.010302952e-14    -1.758593271e-13    -2.057035098e-14

*Increment 51

***** Displacement Data ******
              NodeNo           Magnitude      X Displacement      Y Displacement      Z Displacement
----------------------------------------------------------------------------------------------------
                   1                   0                   0                   0                   0
                   2      0.002595260926      0.001695773828      0.001948345257    -0.0002523512558
                   3      0.007215726775      0.002766899553      0.006663590067     -8.68744962e-05
                   4        0.0131869729      0.003127594228       0.01281065528    -3.898543849e-05
                   5                   0                   0                   0                   0
                   6      0.002595260926      0.001695773828      0.001948345257     0.0002523512558
                   7      0.007215726775      0.002766899553      0.006663590067      8.68744962e-05
                   8        0.0131869729      0.003127594228       0.01281065528     3.898543849e-05
                   9                   0                   0                   0                   0
                  10      0.002595260926     -0.001695773828      0.001948345257     0.0002523512558
                  11      0.007215726775     -0.002766899553      0.006663590067      8.68744962e-05
                  12        0.0131869729     -0.003127594228       0.01281065528     3.898543849e-05
                  13                   0                   0                   0                   0
                  14      0.002595260926     -0.001695773828      0.001948345257    -0.0002523512558
                  15      0.007215726775     -0.002766899553      0.006663590067     -8.68744962e-05
                  16        0.0131869729     -0.003127594228       0.01281065528    -3.898543849e-05

***** Stress Data ******
          Element No         Integral No           Stress XX           Stress YY           Stress ZZ           Stress XY           Stress XZ           Stress YZ               Mises            YieldFlg
                   1                   1         102.1210062        -56.03410919          -46.086897         99.47755769        -6.794072272         4.973606094         231.1683954               False
                   1                   2         93.06224316        -65.09287222        -27.96937094        -58.67755769        -6.794072272         18.56175064         178.9446411               False
                   1                   3        -93.06224316         65.09287222         27.96937094        -58.67755769         6.794072272         18.56175064         178.9446411               False
                   1                   4        -102.1210062         56.03410919           46.086897         99.47755769         6.794072272         4.973606094         231.1683954               False
                   1                   5         102.1210062        -56.03410919          -46.086897         99.47755769         6.794072272        -4.973606094         231.1683954               False
                   1                   6         93.06224316        -65.09287222        -27.96937094        -58.67755769         6.794072272        -18.56175064         178.9446411               False
                   1                   7        -93.06224316         65.09287222         27.96937094        -58.67755769        -6.794072272        -18.56175064         178.9446411               False
                   1                   8        -102.1210062         56.03410919           46.086897         99.47755769        -6.794072272        -4.973606094         231.1683954               False
                   2                   1         53.08253205        -46.81523134        -6.267300709         70.34888169         4.455143529         20.27396531         153.9889334               False
                   2                   2         59.02272342        -40.87503997        -18.14768345        -29.54888169         4.455143529         11.36367826         106.2639989               False
                   2                   3        -59.02272342         40.87503997         18.14768345        -29.54888169        -4.455143529         11.36367826         106.2639989               False
                   2                   4        -53.08253205         46.81523134         6.267300709         70.34888169        -4.455143529         20.27396531         153.9889334               False
                   2                   5         53.08253205        -46.81523134        -6.267300709         70.34888169        -4.455143529        -20.27396531         153.9889334               False
                   2                   6         59.02272342        -40.87503997        -18.14768345        -29.54888169        -4.455143529        -11.36367826         106.2639989               False
                   2                   7        -59.02272342         40.87503997         18.14768345        -29.54888169         4.455143529        -11.36367826         106.2639989               False
                   2                   8        -53.08253205         46.81523134         6.267300709         70.34888169         4.455143529        -20.27396531         153.9889334               False
                   3                   1         17.65432573        -15.98560138        -1.668724347         37.21996356         1.289320784         7.158438517         71.90057577               False
                   3                   2         19.37342011          -14.266507        -5.106913106         3.580036444         1.289320784         4.579796949         31.83984034               False
                   3                   3        -19.37342011           14.266507         5.106913106         3.580036444        -1.289320784         4.579796949         31.83984034               False
                   3                   4        -17.65432573         15.98560138         1.668724347         37.21996356        -1.289320784         7.158438517         71.90057577               False
                   3                   5         17.65432573        -15.98560138        -1.668724347         37.21996356        -1.289320784        -7.158438517         71.90057577               False
                   3                   6         19.37342011          -14.266507        -5.106913106         3.580036444        -1.289320784        -4.579796949         31.83984034               False
                   3                   7        -19.37342011           14.266507         5.106913106         3.580036444         1.289320784        -4.579796949         31.83984034               False
                   3                   8        -17.65432573         15.98560138         1.668724347         37.21996356         1.289320784        -7.158438517         71.90057577               False

***** Strain Data ******
          Element No         Integral No           Strain XX           Strain YY           Strain ZZ           Strain XY           Strain XZ           Strain YZ
                   1                   1     0.0006321776574    -0.0003468778188    -0.0002852998386      0.001231626905    -8.411708528e-05     6.157798021e-05
                   1                   2     0.0005760996005    -0.0004029558757    -0.0001731437249    -0.0007264840476    -8.411708528e-05     0.0002298121508
                   1                   3    -0.0005760996005     0.0004029558757     0.0001731437249    -0.0007264840476     8.411708528e-05     0.0002298121508
                   1                   4    -0.0006321776574     0.0003468778188     0.0002852998386      0.001231626905     8.411708528e-05     6.157798021e-05
                   1                   5     0.0006321776574    -0.0003468778188    -0.0002852998386      0.001231626905     8.411708528e-05    -6.157798021e-05
                   1                   6     0.0005760996005    -0.0004029558757    -0.0001731437249    -0.0007264840476     8.411708528e-05    -0.0002298121508
                   1                   7    -0.0005760996005     0.0004029558757     0.0001731437249    -0.0007264840476    -8.411708528e-05    -0.0002298121508
                   1                   8    -0.0006321776574     0.0003468778188     0.0002852998386      0.001231626905    -8.411708528e-05    -6.157798021e-05
                   2                   1     0.0003286061508    -0.0002898085749    -3.879757582e-05     0.0008709861543     5.515891988e-05     0.0002510109991
                   2                   2      0.000365378764    -0.0002530359617    -0.0001123428023    -0.0003658432971     5.515891988e-05     0.0001406931594
                   2                   3     -0.000365378764     0.0002530359617     0.0001123428023    -0.0003658432971    -5.515891988e-05     0.0001406931594
                   2                   4    -0.0003286061508     0.0002898085749     3.879757582e-05     0.0008709861543    -5.515891988e-05     0.0002510109991
                   2                   5     0.0003286061508    -0.0002898085749    -3.879757582e-05     0.0008709861543    -5.515891988e-05    -0.0002510109991
                   2                   6      0.000365378764    -0.0002530359617    -0.0001123428023    -0.0003658432971    -5.515891988e-05    -0.0001406931594
                   2                   7     -0.000365378764     0.0002530359617     0.0001123428023    -0.0003658432971     5.515891988e-05    -0.0001406931594
                   2                   8    -0.0003286061508     0.0002898085749     3.879757582e-05     0.0008709861543     5.515891988e-05    -0.0002510109991
                   3                   1     0.0001092886831    -9.895848475e-05    -1.033019834e-05     0.0004608185964     1.596301924e-05     8.862828641e-05
                   3                   2     0.0001199306959    -8.831647192e-05    -3.161422399e-05     4.432426074e-05     1.596301924e-05     5.670224793e-05
                   3                   3    -0.0001199306959     8.831647192e-05     3.161422399e-05     4.432426074e-05    -1.596301924e-05     5.670224793e-05
                   3                   4    -0.0001092886831     9.895848475e-05     1.033019834e-05     0.0004608185964    -1.596301924e-05     8.862828641e-05
                   3                   5     0.0001092886831    -9.895848475e-05    -1.033019834e-05     0.0004608185964    -1.596301924e-05    -8.862828641e-05
                   3                   6     0.0001199306959    -8.831647192e-05    -3.161422399e-05     4.432426074e-05    -1.596301924e-05    -5.670224793e-05
                   3                   7    -0.0001199306959     8.831647192e-05     3.161422399e-05     4.432426074e-05     1.596301924e-05    -5.670224793e-05
                   3                   8    -0.0001092886831     9.895848475e-05     1.033019834e-05     0.0004608185964     1.596301924e-05    -8.862828641e-05

***** Plastic Strain Data ******
          Element No         Integral No          PStrain XX          PStrain YY          PStrain ZZ          PStrain XY          PStrain XZ          PStrain YZ
                   1                   1                   0                   0                   0                   0                   0                   0
                   1                   2                   0                   0                   0                   0                   0                   0
                   1                   3                   0                   0                   0                   0                   0                   0
                   1                   4                   0                   0                   0                   0                   0                   0
                   1                   5                   0                   0                   0                   0                   0                   0
                   1                   6                   0                   0                   0                   0                   0                   0
                   1                   7                   0                   0                   0                   0                   0                   0
                   1                   8                   0                   0                   0                   0                   0                   0
                   2                   1                   0                   0                   0                   0                   0                   0
                   2                   2                   0                   0                   0                   0                   0                   0
                   2                   3                   0                   0                   0                   0                   0                   0
                   2                   4                   0                   0                   0                   0                   0                   0
                   2                   5                   0                   0                   0                   0                   0                   0
                   2                   6                   0                   0                   0                   0                   0                   0
                   2                   7                   0                   0                   0                   0                   0                   0
                   2                   8                   0                   0                   0                   0                   0                   0
                   3                   1                   0                   0                   0                   0                   0                   0
                   3                   2                   0                   0                   0                   0                   0                   0
                   3                   3                   0                   0                   0                   0                   0                   0
                   3                   4                   0                   0                   0                   0                   0                   0
                   3                   5                   0                   0                   0                   0                   0                   0
                   3                   6                   0                   0                   0                   0                   0                   0
                   3                   7                   0                   0                   0                   0                   0                   0
                   3                   8                   0                   0                   0                   0                   0                   0

***** Reaction Force Data ******
              NodeNo           Magnitude             X Force             Y Force             Z Force----------------------------------------------------------------------------------------------------
                   1         31.51169834               -30.6                -5.1         5.533275009
                   2     1.095091936e-13     1.030286967e-13     -1.33226763e-14    -3.463895837e-14
                   3      1.29132254e-13     1.012523398e-13     7.993605777e-14     5.773159728e-15
                   4     2.398117553e-13    -5.662137426e-15      1.98951966e-13     1.337749356e-13
                   5         31.51169834               -30.6                -5.1        -5.533275009
                   6     1.395267237e-13     1.243449788e-13     4.796163466e-14     4.130029652e-14
                   7     1.874299804e-13     7.815970093e-14     1.030286967e-13    -1.356692536e-13
                   8     9.713810687e-14     1.754152379e-14     8.615330671e-14    -4.130029652e-14
                   9         31.51169834                30.6                -5.1        -5.533275009
                  10     1.114513518e-13     1.065814104e-14     1.074695888e-13    -2.753353101e-14
                  11     2.049404343e-13    -8.171241461e-14    -1.625366508e-13     9.436895709e-14
                  12     2.851912253e-13    -1.125488591e-13    -2.504663144e-13     7.702866123e-14
                  13         31.51169834                30.6                -5.1         5.533275009
                  14     3.526037564e-14     3.552713679e-15     3.463895837e-14    -5.551115123e-15
                  15     1.241290909e-13     1.243449788e-14    -9.414691249e-14    -7.993605777e-14
                  16     1.949888666e-13     5.440092821e-15    -1.936228955e-13    -2.238834118e-14

*Increment 52

***** Displacement Data ******
              NodeNo           Magnitude      X Displacement      Y Displacement      Z Displacement
----------------------------------------------------------------------------------------------------
                   1                   0                   0                   0                   0
                   2      0.002646148395      0.001729024295      0.001986548105    -0.0002572993197
                   3      0.007357211614      0.002821152486      0.006794248696    -8.857791769e-05
                   4       0.01344554099      0.003188919606        0.0130618446    -3.974985885e-05
                   5                   0                   0                   0                   0
                   6      0.002646148395      0.001729024295      0.001986548105     0.0002572993197
                   7      0.007357211614      0.002821152486      0.006794248696     8.857791769e-05
                   8       0.01344554099      0.003188919606        0.0130618446     3.974985885e-05
                   9                   0                   0                   0                   0
                  10      0.002646148395     -0.001729024295      0.001986548105     0.0002572993197
                  11      0.007357211614     -0.002821152486      0.006794248696     8.857791769e-05
                  12       0.01344554099     -0.003188919606        0.0130618446     3.974985885e-05
                  13                   0                   0                   0                   0
                  14      0.002646148395     -0.001729024295      0.001986548105    -0.0002572993197
                  15      0.007357211614     -0.002821152486      0.006794248696    -8.857791769e-05
                  16       0.01344554099     -0.003188919606        0.0130618446    -3.974985885e-05

***** Stress Data ******
          Element No         Integral No           Stress XX           Stress YY           Stress ZZ           Stress XY           Stress XZ           Stress YZ               Mises            YieldFlg
                   1                   1         104.1233789        -57.13281721        -46.99056165          101.428098        -6.927289376         5.071127782         235.7011091               False
                   1                   2         94.88699303        -66.36920305        -28.51778998        -59.82809804        -6.927289376         18.92570653         182.4533596               False
                   1                   3        -94.88699303         66.36920305         28.51778998        -59.82809804         6.927289376         18.92570653         182.4533596               False
                   1                   4        -104.1233789         57.13281721         46.99056165          101.428098         6.927289376         5.071127782         235.7011091               False
                   1                   5         104.1233789        -57.13281721        -46.99056165          101.428098         6.927289376        -5.071127782         235.7011091               False
                   1                   6         94.88699303        -66.36920305        -28.51778998        -59.82809804         6.927289376        -18.92570653         182.4533596               False
                   1                   7        -94.88699303         66.36920305         28.51778998        -59.82809804        -6.927289376        -18.92570653         182.4533596               False
                   1                   8        -104.1233789         57.13281721         46.99056165          101.428098        -6.927289376        -5.071127782         235.7011091               False
                   2                   1         54.12336601        -47.73317705        -6.390188958         71.72827153         4.542499284         20.67149405         157.0083243               False
                   2                   2         60.18003172        -41.67651134        -18.50352038        -30.12827153         4.542499284         11.58649548         108.3476068               False
                   2                   3        -60.18003172         41.67651134         18.50352038        -30.12827153        -4.542499284         11.58649548         108.3476068               False
                   2                   4        -54.12336601         47.73317705         6.390188958         71.72827153        -4.542499284         20.67149405         157.0083243               False
                   2                   5         54.12336601        -47.73317705        -6.390188958         71.72827153        -4.542499284        -20.67149405         157.0083243               False
                   2                   6         60.18003172        -41.67651134        -18.50352038        -30.12827153        -4.542499284        -11.58649548         108.3476068               False
                   2                   7        -60.18003172         41.67651134         18.50352038        -30.12827153         4.542499284        -11.58649548         108.3476068               False
                   2                   8        -54.12336601         47.73317705         6.390188958         71.72827153         4.542499284        -20.67149405         157.0083243               False
                   3                   1         18.00048898        -16.29904455        -1.701444432         37.94976676         1.314601584         7.298800057         73.31039098               False
                   3                   2         19.75329109        -14.54624243        -5.207048657         3.650233237         1.314601584         4.669596889         32.46415093               False
                   3                   3        -19.75329109         14.54624243         5.207048657         3.650233237        -1.314601584         4.669596889         32.46415093               False
                   3                   4        -18.00048898         16.29904455         1.701444432         37.94976676        -1.314601584         7.298800057         73.31039098               False
                   3                   5         18.00048898        -16.29904455        -1.701444432         37.94976676        -1.314601584        -7.298800057         73.31039098               False
                   3                   6         19.75329109        -14.54624243        -5.207048657         3.650233237        -1.314601584        -4.669596889         32.46415093               False
                   3                   7        -19.75329109         14.54624243         5.207048657         3.650233237         1.314601584        -4.669596889         32.46415093               False
                   3                   8        -18.00048898         16.29904455         1.701444432         37.94976676         1.314601584        -7.298800057         73.31039098               False

***** Strain Data ******
          Element No         Integral No           Strain XX           Strain YY           Strain ZZ           Strain XY           Strain XZ           Strain YZ
                   1                   1     0.0006445732977    -0.0003536793447    -0.0002908939531      0.001255776452    -8.576643989e-05     6.278539158e-05
                   1                   2     0.0005873956711    -0.0004108569713    -0.0001765386999    -0.0007407288329    -8.576643989e-05     0.0002343182714
                   1                   3    -0.0005873956711     0.0004108569713     0.0001765386999    -0.0007407288329     8.576643989e-05     0.0002343182714
                   1                   4    -0.0006445732977     0.0003536793447     0.0002908939531      0.001255776452     8.576643989e-05     6.278539158e-05
                   1                   5     0.0006445732977    -0.0003536793447    -0.0002908939531      0.001255776452     8.576643989e-05    -6.278539158e-05
                   1                   6     0.0005873956711    -0.0004108569713    -0.0001765386999    -0.0007407288329     8.576643989e-05    -0.0002343182714
                   1                   7    -0.0005873956711     0.0004108569713     0.0001765386999    -0.0007407288329    -8.576643989e-05    -0.0002343182714
                   1                   8    -0.0006445732977     0.0003536793447     0.0002908939531      0.001255776452    -8.576643989e-05    -6.278539158e-05
                   2                   1     0.0003350494086     -0.000295491096     -3.95583126e-05     0.0008880643142     5.624046733e-05     0.0002559327834
                   2                   2     0.0003725430535    -0.0002579974511    -0.0001145456024    -0.0003730166951     5.624046733e-05     0.0001434518488
                   2                   3    -0.0003725430535     0.0002579974511     0.0001145456024    -0.0003730166951    -5.624046733e-05     0.0001434518488
                   2                   4    -0.0003350494086      0.000295491096      3.95583126e-05     0.0008880643142    -5.624046733e-05     0.0002559327834
                   2                   5     0.0003350494086     -0.000295491096     -3.95583126e-05     0.0008880643142    -5.624046733e-05    -0.0002559327834
                   2                   6     0.0003725430535    -0.0002579974511    -0.0001145456024    -0.0003730166951    -5.624046733e-05    -0.0001434518488
                   2                   7    -0.0003725430535     0.0002579974511     0.0001145456024    -0.0003730166951     5.624046733e-05    -0.0001434518488
                   2                   8    -0.0003350494086      0.000295491096      3.95583126e-05     0.0008880643142     5.624046733e-05    -0.0002559327834
                   3                   1     0.0001114315984    -0.0001008988472    -1.053275125e-05     0.0004698542552     1.627601961e-05     9.036609594e-05
                   3                   2     0.0001222822782    -9.004816745e-05    -3.223411073e-05     4.519336389e-05     1.627601961e-05     5.781405672e-05
                   3                   3    -0.0001222822782     9.004816745e-05     3.223411073e-05     4.519336389e-05    -1.627601961e-05     5.781405672e-05
                   3                   4    -0.0001114315984     0.0001008988472     1.053275125e-05     0.0004698542552    -1.627601961e-05     9.036609594e-05
                   3                   5     0.0001114315984    -0.0001008988472    -1.053275125e-05     0.0004698542552    -1.627601961e-05    -9.036609594e-05
                   3                   6     0.0001222822782    -9.004816745e-05    -3.223411073e-05     4.519336389e-05    -1.627601961e-05    -5.781405672e-05
                   3                   7    -0.0001222822782     9.004816745e-05     3.223411073e-05     4.519336389e-05     1.627601961e-05    -5.781405672e-05
                   3                   8    -0.0001114315984     0.0001008988472     1.053275125e-05     0.0004698542552     1.627601961e-05    -9.036609594e-05

***** Plastic Strain Data ******
          Element No         Integral No          PStrain XX          PStrain YY          PStrain ZZ          PStrain XY          PStrain XZ          PStrain YZ
                   1                   1                   0                   0                   0                   0                   0                   0
                   1                   2                   0                   0                   0                   0                   0                   0
                   1                   3                   0                   0                   0                   0                   0                   0
                   1                   4                   0                   0                   0                   0                   0                   0
                   1                   5                   0                   0                   0                   0                   0                   0
                   1                   6                   0                   0                   0                   0                   0                   0
                   1                   7                   0                   0                   0                   0                   0                   0
                   1                   8                   0                   0                   0                   0                   0                   0
                   2                   1                   0                   0                   0                   0                   0                   0
                   2                   2                   0                   0                   0                   0                   0                   0
                   2                   3                   0                   0                   0                   0                   0                   0
                   2                   4                   0                   0                   0                   0                   0                   0
                   2                   5                   0                   0                   0                   0                   0                   0
                   2                   6                   0                   0                   0                   0                   0                   0
                   2                   7                   0                   0                   0                   0                   0                   0
                   2                   8                   0                   0                   0                   0                   0                   0
                   3                   1                   0                   0                   0                   0                   0                   0
                   3                   2                   0                   0                   0                   0                   0                   0
                   3                   3                   0                   0                   0                   0                   0                   0
                   3                   4                   0                   0                   0                   0                   0                   0
                   3                   5                   0                   0                   0                   0                   0                   0
                   3                   6                   0                   0                   0                   0                   0                   0
                   3                   7                   0                   0                   0                   0                   0                   0
                   3                   8                   0                   0                   0                   0                   0                   0

***** Reaction Force Data ******
              NodeNo           Magnitude             X Force             Y Force             Z Force----------------------------------------------------------------------------------------------------
                   1         32.12957478               -31.2                -5.2         5.641770598
                   2     9.238443239e-14     8.526512829e-14     9.769962617e-15    -3.419486916e-14
                   3     1.434457987e-13     1.367794766e-13     2.220446049e-14    -3.708144902e-14
                   4     1.897764563e-13    -1.448841047e-14     1.589839371e-13     1.026123631e-13
                   5         32.12957478               -31.2                -5.2        -5.641770598
                   6     1.430187904e-13      1.10134124e-13     7.815970093e-14     4.707345624e-14
                   7     1.312822648e-13     5.329070518e-14     5.151434834e-14    -1.083577672e-13
                   8     8.241235691e-14     8.659739592e-15     7.727152251e-14    -2.731148641e-14
                   9         32.12957478                31.2                -5.2        -5.641770598
                  10     1.184863385e-13    -2.486899575e-14     1.110223025e-13    -3.308464613e-14
                  11     1.973277061e-13    -9.414691249e-14    -1.518785098e-13     8.371081606e-14
                  12     2.457457944e-13      -9.5617958e-14    -2.140509991e-13     7.369105326e-14
                  13         32.12957478                31.2                -5.2         5.641770598
                  14     2.864633583e-14    -3.552713679e-15     2.842170943e-14    -4.440892099e-16
                  15     1.079813324e-13     2.309263891e-14    -9.148237723e-14    -5.251354906e-14
                  16      1.36004398e-13     4.862776848e-14     -1.27009514e-13     -1.05818132e-15

*Increment 53

***** Displacement Data ******
              NodeNo           Magnitude      X Displacement      Y Displacement      Z Displacement
----------------------------------------------------------------------------------------------------
                   1                   0                   0                   0                   0
                   2      0.002697035864      0.001762274763      0.002024750953    -0.0002622473835
                   3      0.007498696453      0.002875405418      0.006924907324    -9.028133919e-05
                   4       0.01370410909      0.003250244983       0.01331303392    -4.051427921e-05
                   5                   0                   0                   0                   0
                   6      0.002697035864      0.001762274763      0.002024750953     0.0002622473835
                   7      0.007498696453      0.002875405418      0.006924907324     9.028133919e-05
                   8       0.01370410909      0.003250244983       0.01331303392     4.051427921e-05
                   9                   0                   0                   0                   0
                  10      0.002697035864     -0.001762274763      0.002024750953     0.0002622473835
                  11      0.007498696453     -0.002875405418      0.006924907324     9.028133919e-05
                  12       0.01370410909     -0.003250244983       0.01331303392     4.051427921e-05
                  13                   0                   0                   0                   0
                  14      0.002697035864     -0.001762274763      0.002024750953    -0.0002622473835
                  15      0.007498696453     -0.002875405418      0.006924907324    -9.028133919e-05
                  16       0.01370410909     -0.003250244983       0.01331303392    -4.051427921e-05

***** Stress Data ******
          Element No         Integral No           Stress XX           Stress YY           Stress ZZ           Stress XY           Stress XZ           Stress YZ               Mises            YieldFlg
                   1                   1         106.1257515        -58.23152524         -47.8942263         103.3786384        -7.060506479          5.16864947         240.2338227               False
                   1                   2          96.7117429        -67.64553388        -29.06620902        -60.97863839        -7.060506479         19.28966243          185.962078               False
                   1                   3         -96.7117429         67.64553388         29.06620902        -60.97863839         7.060506479         19.28966243          185.962078               False
                   1                   4        -106.1257515         58.23152524          47.8942263         103.3786384         7.060506479          5.16864947         240.2338227               False
                   1                   5         106.1257515        -58.23152524         -47.8942263         103.3786384         7.060506479         -5.16864947         240.2338227               False
                   1                   6          96.7117429        -67.64553388        -29.06620902        -60.97863839         7.060506479        -19.28966243          185.962078               False
                   1                   7         -96.7117429         67.64553388         29.06620902        -60.97863839        -7.060506479        -19.28966243          185.962078               False
                   1                   8        -106.1257515         58.23152524          47.8942263         103.3786384        -7.060506479         -5.16864947         240.2338227               False
                   2                   1         55.16419997        -48.65112276        -6.513077207         73.10766137         4.629855039         21.06902278         160.0277151               False
                   2                   2         61.33734002        -42.47798271        -18.85935731        -30.70766137         4.629855039          11.8093127         110.4312146               False
                   2                   3        -61.33734002         42.47798271         18.85935731        -30.70766137        -4.629855039          11.8093127         110.4312146               False
                   2                   4        -55.16419997         48.65112276         6.513077207         73.10766137        -4.629855039         21.06902278         160.0277151               False
                   2                   5         55.16419997        -48.65112276        -6.513077207         73.10766137        -4.629855039        -21.06902278         160.0277151               False
                   2                   6         61.33734002        -42.47798271        -18.85935731        -30.70766137        -4.629855039         -11.8093127         110.4312146               False
                   2                   7        -61.33734002         42.47798271         18.85935731        -30.70766137         4.629855039         -11.8093127         110.4312146               False
                   2                   8        -55.16419997         48.65112276         6.513077207         73.10766137         4.629855039        -21.06902278         160.0277151               False
                   3                   1         18.34665223        -16.61248771        -1.734164518         38.67956997         1.339882384         7.439161597         74.72020619               False
                   3                   2         20.13316207        -14.82597787        -5.307184208          3.72043003         1.339882384         4.759396829         33.08846153               False
                   3                   3        -20.13316207         14.82597787         5.307184208          3.72043003        -1.339882384         4.759396829         33.08846153               False
                   3                   4        -18.34665223         16.61248771         1.734164518         38.67956997        -1.339882384         7.439161597         74.72020619               False
                   3                   5         18.34665223        -16.61248771        -1.734164518         38.67956997        -1.339882384        -7.439161597         74.72020619               False
                   3                   6         20.13316207        -14.82597787        -5.307184208          3.72043003        -1.339882384        -4.759396829         33.08846153               False
                   3                   7        -20.13316207         14.82597787         5.307184208          3.72043003         1.339882384        -4.759396829         33.08846153               False
                   3                   8        -18.34665223         16.61248771         1.734164518         38.67956997         1.339882384        -7.439161597         74.72020619               False

***** Strain Data ******
          Element No         Integral No           Strain XX           Strain YY           Strain ZZ           Strain XY           Strain XZ           Strain YZ
                   1                   1     0.0006569689381    -0.0003604808705    -0.0002964880676      0.001279925999     -8.74157945e-05     6.399280296e-05
                   1                   2     0.0005986917417    -0.0004187580669    -0.0001799336749    -0.0007549736181     -8.74157945e-05      0.000238824392
                   1                   3    -0.0005986917417     0.0004187580669     0.0001799336749    -0.0007549736181      8.74157945e-05      0.000238824392
                   1                   4    -0.0006569689381     0.0003604808705     0.0002964880676      0.001279925999      8.74157945e-05     6.399280296e-05
                   1                   5     0.0006569689381    -0.0003604808705    -0.0002964880676      0.001279925999      8.74157945e-05    -6.399280296e-05
                   1                   6     0.0005986917417    -0.0004187580669    -0.0001799336749    -0.0007549736181      8.74157945e-05     -0.000238824392
                   1                   7    -0.0005986917417     0.0004187580669     0.0001799336749    -0.0007549736181     -8.74157945e-05     -0.000238824392
                   1                   8    -0.0006569689381     0.0003604808705     0.0002964880676      0.001279925999     -8.74157945e-05    -6.399280296e-05
                   2                   1     0.0003414926665    -0.0003011736171    -4.031904938e-05     0.0009051424741     5.732201477e-05     0.0002608545677
                   2                   2      0.000379707343    -0.0002629589406    -0.0001167484024    -0.0003801900931     5.732201477e-05     0.0001462105382
                   2                   3     -0.000379707343     0.0002629589406     0.0001167484024    -0.0003801900931    -5.732201477e-05     0.0001462105382
                   2                   4    -0.0003414926665     0.0003011736171     4.031904938e-05     0.0009051424741    -5.732201477e-05     0.0002608545677
                   2                   5     0.0003414926665    -0.0003011736171    -4.031904938e-05     0.0009051424741    -5.732201477e-05    -0.0002608545677
                   2                   6      0.000379707343    -0.0002629589406    -0.0001167484024    -0.0003801900931    -5.732201477e-05    -0.0001462105382
                   2                   7     -0.000379707343     0.0002629589406     0.0001167484024    -0.0003801900931     5.732201477e-05    -0.0001462105382
                   2                   8    -0.0003414926665     0.0003011736171     4.031904938e-05     0.0009051424741     5.732201477e-05    -0.0002608545677
                   3                   1     0.0001135745138    -0.0001028392096    -1.073530416e-05     0.0004788899139     1.658901999e-05     9.210390548e-05
                   3                   2     0.0001246338605    -9.177986298e-05    -3.285399748e-05     4.606246704e-05     1.658901999e-05      5.89258655e-05
                   3                   3    -0.0001246338605     9.177986298e-05     3.285399748e-05     4.606246704e-05    -1.658901999e-05      5.89258655e-05
                   3                   4    -0.0001135745138     0.0001028392096     1.073530416e-05     0.0004788899139    -1.658901999e-05     9.210390548e-05
                   3                   5     0.0001135745138    -0.0001028392096    -1.073530416e-05     0.0004788899139    -1.658901999e-05    -9.210390548e-05
                   3                   6     0.0001246338605    -9.177986298e-05    -3.285399748e-05     4.606246704e-05    -1.658901999e-05     -5.89258655e-05
                   3                   7    -0.0001246338605     9.177986298e-05     3.285399748e-05     4.606246704e-05     1.658901999e-05     -5.89258655e-05
                   3                   8    -0.0001135745138     0.0001028392096     1.073530416e-05     0.0004788899139     1.658901999e-05    -9.210390548e-05

***** Plastic Strain Data ******
          Element No         Integral No          PStrain XX          PStrain YY          PStrain ZZ          PStrain XY          PStrain XZ          PStrain YZ
                   1                   1                   0                   0                   0                   0                   0                   0
                   1                   2                   0                   0                   0                   0                   0                   0
                   1                   3                   0                   0                   0                   0                   0                   0
                   1                   4                   0                   0                   0                   0                   0                   0
                   1                   5                   0                   0                   0                   0                   0                   0
                   1                   6                   0                   0                   0                   0                   0                   0
                   1                   7                   0                   0                   0                   0                   0                   0
                   1                   8                   0                   0                   0                   0                   0                   0
                   2                   1                   0                   0                   0                   0                   0                   0
                   2                   2                   0                   0                   0                   0                   0                   0
                   2                   3                   0                   0                   0                   0                   0                   0
                   2                   4                   0                   0                   0                   0                   0                   0
                   2                   5                   0                   0                   0                   0                   0                   0
                   2                   6                   0                   0                   0                   0                   0                   0
                   2                   7                   0                   0                   0                   0                   0                   0
                   2                   8                   0                   0                   0                   0                   0                   0
                   3                   1                   0                   0                   0                   0                   0                   0
                   3                   2                   0                   0                   0                   0                   0                   0
                   3                   3                   0                   0                   0                   0                   0                   0
                   3                   4                   0                   0                   0                   0                   0                   0
                   3                   5                   0                   0                   0                   0                   0                   0
                   3                   6                   0                   0                   0                   0                   0                   0
                   3                   7                   0                   0                   0                   0                   0                   0
                   3                   8                   0                   0                   0                   0                   0                   0

***** Reaction Force Data ******
              NodeNo           Magnitude             X Force             Y Force             Z Force----------------------------------------------------------------------------------------------------
                   1         32.74745122               -31.8                -5.3         5.750266186
                   2     9.200286309e-14     7.815970093e-14     1.421085472e-14    -4.640732243e-14
                   3      1.65561057e-13     1.492139745e-13     -4.52970994e-14    -5.562217353e-14
                   4      1.59106915e-13     3.330669074e-16     1.350031198e-13     8.419653863e-14
                   5         32.74745122               -31.8                -5.3        -5.750266186
                   6     1.481809643e-13     1.136868377e-13     7.283063042e-14     6.106226635e-14
                   7      1.16916184e-13      5.86197757e-14    -1.776356839e-14    -9.958700531e-14
                   8       1.1071792e-13     3.330669074e-15     1.056932319e-13    -3.280709038e-14
                   9         32.74745122                31.8                -5.3        -5.750266186
                  10     1.628300188e-13     -4.97379915e-14     1.465494393e-13    -5.062616992e-14
                  11      1.97357593e-13    -8.526512829e-14    -1.616484724e-13     7.449596495e-14
                  12     2.192760846e-13    -9.053868766e-14    -1.829647545e-13     8.005401897e-14
                  13         32.74745122                31.8                -5.3         5.750266186
                  14      7.28309689e-14    -2.486899575e-14     6.661338148e-14     1.576516695e-14
                  15     6.473352399e-14     3.552713679e-14     -4.97379915e-14    -2.131628207e-14
                  16     1.292691404e-13     5.762057498e-14    -1.154631946e-13     7.657069423e-15

*Increment 54

***** Displacement Data ******
              NodeNo           Magnitude      X Displacement      Y Displacement      Z Displacement
----------------------------------------------------------------------------------------------------
                   1                   0                   0                   0                   0
                   2      0.002747923333       0.00179552523      0.002062953801    -0.0002671954473
                   3      0.007640181291      0.002929658351      0.007055565953    -9.198476068e-05
                   4       0.01396267718       0.00331157036       0.01356422323    -4.127869958e-05
                   5                   0                   0                   0                   0
                   6      0.002747923333       0.00179552523      0.002062953801     0.0002671954473
                   7      0.007640181291      0.002929658351      0.007055565953     9.198476068e-05
                   8       0.01396267718       0.00331157036       0.01356422323     4.127869958e-05
                   9                   0                   0                   0                   0
                  10      0.002747923333      -0.00179552523      0.002062953801     0.0002671954473
                  11      0.007640181291     -0.002929658351      0.007055565953     9.198476068e-05
                  12       0.01396267718      -0.00331157036       0.01356422323     4.127869958e-05
                  13                   0                   0                   0                   0
                  14      0.002747923333      -0.00179552523      0.002062953801    -0.0002671954473
                  15      0.007640181291     -0.002929658351      0.007055565953    -9.198476068e-05
                  16       0.01396267718      -0.00331157036       0.01356422323    -4.127869958e-05

***** Stress Data ******
          Element No         Integral No           Stress XX           Stress YY           Stress ZZ           Stress XY           Stress XZ           Stress YZ               Mises            YieldFlg
                   1                   1         108.1281242        -59.33023326        -48.79789094         105.3291787        -7.193723582         5.266171158         244.7665363               False
                   1                   2         98.53649276         -68.9218647        -29.61462806        -62.12917873        -7.193723582         19.65361832         189.4707965               False
                   1                   3        -98.53649276          68.9218647         29.61462806        -62.12917873         7.193723582         19.65361832         189.4707965               False
                   1                   4        -108.1281242         59.33023326         48.79789094         105.3291787         7.193723582         5.266171158         244.7665363               False
                   1                   5         108.1281242        -59.33023326        -48.79789094         105.3291787         7.193723582        -5.266171158         244.7665363               False
                   1                   6         98.53649276         -68.9218647        -29.61462806        -62.12917873         7.193723582        -19.65361832         189.4707965               False
                   1                   7        -98.53649276          68.9218647         29.61462806        -62.12917873        -7.193723582        -19.65361832         189.4707965               False
                   1                   8        -108.1281242         59.33023326         48.79789094         105.3291787        -7.193723582        -5.266171158         244.7665363               False
                   2                   1         56.20503393        -49.56906847        -6.635965457          74.4870512         4.717210795         21.46655151          163.047106               False
                   2                   2         62.49464832        -43.27945408        -19.21519424         -31.2870512         4.717210795         12.03212992         112.5148224               False
                   2                   3        -62.49464832         43.27945408         19.21519424         -31.2870512        -4.717210795         12.03212992         112.5148224               False
                   2                   4        -56.20503393         49.56906847         6.635965457          74.4870512        -4.717210795         21.46655151          163.047106               False
                   2                   5         56.20503393        -49.56906847        -6.635965457          74.4870512        -4.717210795        -21.46655151          163.047106               False
                   2                   6         62.49464832        -43.27945408        -19.21519424         -31.2870512        -4.717210795        -12.03212992         112.5148224               False
                   2                   7        -62.49464832         43.27945408         19.21519424         -31.2870512         4.717210795        -12.03212992         112.5148224               False
                   2                   8        -56.20503393         49.56906847         6.635965457          74.4870512         4.717210795        -21.46655151          163.047106               False
                   3                   1         18.69281548        -16.92593088        -1.766884603         39.40937318         1.365163184         7.579523136          76.1300214               False
                   3                   2         20.51303306         -15.1057133        -5.407319759         3.790626823         1.365163184         4.849196769         33.71277212               False
                   3                   3        -20.51303306          15.1057133         5.407319759         3.790626823        -1.365163184         4.849196769         33.71277212               False
                   3                   4        -18.69281548         16.92593088         1.766884603         39.40937318        -1.365163184         7.579523136          76.1300214               False
                   3                   5         18.69281548        -16.92593088        -1.766884603         39.40937318        -1.365163184        -7.579523136          76.1300214               False
                   3                   6         20.51303306         -15.1057133        -5.407319759         3.790626823        -1.365163184        -4.849196769         33.71277212               False
                   3                   7        -20.51303306          15.1057133         5.407319759         3.790626823         1.365163184        -4.849196769         33.71277212               False
                   3                   8        -18.69281548         16.92593088         1.766884603         39.40937318         1.365163184        -7.579523136          76.1300214               False

***** Strain Data ******
          Element No         Integral No           Strain XX           Strain YY           Strain ZZ           Strain XY           Strain XZ           Strain YZ
                   1                   1     0.0006693645784    -0.0003672823964     -0.000302082182      0.001304075546    -8.906514912e-05     6.520021434e-05
                   1                   2     0.0006099878123    -0.0004266591625    -0.0001833286499    -0.0007692184034    -8.906514912e-05     0.0002433305126
                   1                   3    -0.0006099878123     0.0004266591625     0.0001833286499    -0.0007692184034     8.906514912e-05     0.0002433305126
                   1                   4    -0.0006693645784     0.0003672823964      0.000302082182      0.001304075546     8.906514912e-05     6.520021434e-05
                   1                   5     0.0006693645784    -0.0003672823964     -0.000302082182      0.001304075546     8.906514912e-05    -6.520021434e-05
                   1                   6     0.0006099878123    -0.0004266591625    -0.0001833286499    -0.0007692184034     8.906514912e-05    -0.0002433305126
                   1                   7    -0.0006099878123     0.0004266591625     0.0001833286499    -0.0007692184034    -8.906514912e-05    -0.0002433305126
                   1                   8    -0.0006693645784     0.0003672823964      0.000302082182      0.001304075546    -8.906514912e-05    -6.520021434e-05
                   2                   1     0.0003479359243    -0.0003068561382    -4.107978616e-05     0.0009222206339     5.840356222e-05      0.000265776352
                   2                   2     0.0003868716325      -0.00026792043    -0.0001189512025    -0.0003873634911     5.840356222e-05     0.0001489692276
                   2                   3    -0.0003868716325       0.00026792043     0.0001189512025    -0.0003873634911    -5.840356222e-05     0.0001489692276
                   2                   4    -0.0003479359243     0.0003068561382     4.107978616e-05     0.0009222206339    -5.840356222e-05      0.000265776352
                   2                   5     0.0003479359243    -0.0003068561382    -4.107978616e-05     0.0009222206339    -5.840356222e-05     -0.000265776352
                   2                   6     0.0003868716325      -0.00026792043    -0.0001189512025    -0.0003873634911    -5.840356222e-05    -0.0001489692276
                   2                   7    -0.0003868716325       0.00026792043     0.0001189512025    -0.0003873634911     5.840356222e-05    -0.0001489692276
                   2                   8    -0.0003479359243     0.0003068561382     4.107978616e-05     0.0009222206339     5.840356222e-05     -0.000265776352
                   3                   1     0.0001157174291    -0.0001047795721    -1.093785706e-05     0.0004879255727     1.690202037e-05     9.384171502e-05
                   3                   2     0.0001269854427    -9.351155851e-05    -3.347388422e-05      4.69315702e-05     1.690202037e-05     6.003767428e-05
                   3                   3    -0.0001269854427     9.351155851e-05     3.347388422e-05      4.69315702e-05    -1.690202037e-05     6.003767428e-05
                   3                   4    -0.0001157174291     0.0001047795721     1.093785706e-05     0.0004879255727    -1.690202037e-05     9.384171502e-05
                   3                   5     0.0001157174291    -0.0001047795721    -1.093785706e-05     0.0004879255727    -1.690202037e-05    -9.384171502e-05
                   3                   6     0.0001269854427    -9.351155851e-05    -3.347388422e-05      4.69315702e-05    -1.690202037e-05    -6.003767428e-05
                   3                   7    -0.0001269854427     9.351155851e-05     3.347388422e-05      4.69315702e-05     1.690202037e-05    -6.003767428e-05
                   3                   8    -0.0001157174291     0.0001047795721     1.093785706e-05     0.0004879255727     1.690202037e-05    -9.384171502e-05

***** Plastic Strain Data ******
          Element No         Integral No          PStrain XX          PStrain YY          PStrain ZZ          PStrain XY          PStrain XZ          PStrain YZ
                   1                   1                   0                   0                   0                   0                   0                   0
                   1                   2                   0                   0                   0                   0                   0                   0
                   1                   3                   0                   0                   0                   0                   0                   0
                   1                   4                   0                   0                   0                   0                   0                   0
                   1                   5                   0                   0                   0                   0                   0                   0
                   1                   6                   0                   0                   0                   0                   0                   0
                   1                   7                   0                   0                   0                   0                   0                   0
                   1                   8                   0                   0                   0                   0                   0                   0
                   2                   1                   0                   0                   0                   0                   0                   0
                   2                   2                   0                   0                   0                   0                   0                   0
                   2                   3                   0                   0                   0                   0                   0                   0
                   2                   4                   0                   0                   0                   0                   0                   0
                   2                   5                   0                   0                   0                   0                   0                   0
                   2                   6                   0                   0                   0                   0                   0                   0
                   2                   7                   0                   0                   0                   0                   0                   0
                   2                   8                   0                   0                   0                   0                   0                   0
                   3                   1                   0                   0                   0                   0                   0                   0
                   3                   2                   0                   0                   0                   0                   0                   0
                   3                   3                   0                   0                   0                   0                   0                   0
                   3                   4                   0                   0                   0                   0                   0                   0
                   3                   5                   0                   0                   0                   0                   0                   0
                   3                   6                   0                   0                   0                   0                   0                   0
                   3                   7                   0                   0                   0                   0                   0                   0
                   3                   8                   0                   0                   0                   0                   0                   0

***** Reaction Force Data ******
              NodeNo           Magnitude             X Force             Y Force             Z Force----------------------------------------------------------------------------------------------------
                   1         33.36532766               -32.4                -5.4         5.858761774
                   2     9.026297543e-14     8.171241461e-14    -9.769962617e-15    -3.708144902e-14
                   3     8.842569203e-14     6.927791674e-14     4.085620731e-14    -3.674838212e-14
                   4      1.61210929e-13     2.536859611e-14     1.216804435e-13     1.026609353e-13
                   5         33.36532766               -32.4                -5.4        -5.858761774
                   6     1.472115541e-13     1.207922651e-13     7.105427358e-14      4.50750548e-14
                   7     1.100938823e-13     2.842170943e-14     3.552713679e-14    -1.002531391e-13
                   8      5.92733883e-14     3.930189507e-14     3.907985047e-14    -2.101097074e-14
                   9         33.36532766                32.4                -5.4        -5.858761774
                  10     1.265383481e-13                   0     1.234568003e-13    -2.775557562e-14
                  11     2.082697907e-13    -1.207922651e-13    -1.536548666e-13       7.1942452e-14
                  12     2.028466507e-13    -8.637535132e-14    -1.740829703e-13     5.814793091e-14
                  13         33.36532766                32.4                -5.4         5.858761774
                  14     4.101278661e-14     7.105427358e-15     3.907985047e-14    -1.021405183e-14
                  15     7.988924508e-14    -1.776356839e-15    -6.394884622e-14    -4.785061236e-14
                  16     1.211731877e-13     6.117328866e-14    -1.030286967e-13     1.805153249e-14

*Increment 55

***** Displacement Data ******
              NodeNo           Magnitude      X Displacement      Y Displacement      Z Displacement
----------------------------------------------------------------------------------------------------
                   1                   0                   0                   0                   0
                   2      0.002798810802      0.001828775697      0.002101156649    -0.0002721435112
                   3       0.00778166613      0.002983911283      0.007186224582    -9.368818217e-05
                   4       0.01422124528      0.003372895737       0.01381541255    -4.204311994e-05
                   5                   0                   0                   0                   0
                   6      0.002798810802      0.001828775697      0.002101156649     0.0002721435112
                   7       0.00778166613      0.002983911283      0.007186224582     9.368818217e-05
                   8       0.01422124528      0.003372895737       0.01381541255     4.204311994e-05
                   9                   0                   0                   0                   0
                  10      0.002798810802     -0.001828775697      0.002101156649     0.0002721435112
                  11       0.00778166613     -0.002983911283      0.007186224582     9.368818217e-05
                  12       0.01422124528     -0.003372895737       0.01381541255     4.204311994e-05
                  13                   0                   0                   0                   0
                  14      0.002798810802     -0.001828775697      0.002101156649    -0.0002721435112
                  15       0.00778166613     -0.002983911283      0.007186224582    -9.368818217e-05
                  16       0.01422124528     -0.003372895737       0.01381541255    -4.204311994e-05

***** Stress Data ******
          Element No         Integral No           Stress XX           Stress YY           Stress ZZ           Stress XY           Stress XZ           Stress YZ               Mises            YieldFlg
                   1                   1         110.1304969        -60.42894128        -49.70155559         107.2797191        -7.326940686         5.363692846           249.29925               False
                   1                   2         100.3612426        -70.19819553         -30.1630471        -63.27971908        -7.326940686         20.01757422         192.9795149               False
                   1                   3        -100.3612426         70.19819553          30.1630471        -63.27971908         7.326940686         20.01757422         192.9795149               False
                   1                   4        -110.1304969         60.42894128         49.70155559         107.2797191         7.326940686         5.363692846           249.29925               False
                   1                   5         110.1304969        -60.42894128        -49.70155559         107.2797191         7.326940686        -5.363692846           249.29925               False
                   1                   6         100.3612426        -70.19819553         -30.1630471        -63.27971908         7.326940686        -20.01757422         192.9795149               False
                   1                   7        -100.3612426         70.19819553          30.1630471        -63.27971908        -7.326940686        -20.01757422         192.9795149               False
                   1                   8        -110.1304969         60.42894128         49.70155559         107.2797191        -7.326940686        -5.363692846           249.29925               False
                   2                   1         57.24586789        -50.48701419        -6.758853706         75.86644104          4.80456655         21.86408024         166.0664968               False
                   2                   2         63.65195663        -44.08092545        -19.57103117        -31.86644104          4.80456655         12.25494714         114.5984302               False
                   2                   3        -63.65195663         44.08092545         19.57103117        -31.86644104         -4.80456655         12.25494714         114.5984302               False
                   2                   4        -57.24586789         50.48701419         6.758853706         75.86644104         -4.80456655         21.86408024         166.0664968               False
                   2                   5         57.24586789        -50.48701419        -6.758853706         75.86644104         -4.80456655        -21.86408024         166.0664968               False
                   2                   6         63.65195663        -44.08092545        -19.57103117        -31.86644104         -4.80456655        -12.25494714         114.5984302               False
                   2                   7        -63.65195663         44.08092545         19.57103117        -31.86644104          4.80456655        -12.25494714         114.5984302               False
                   2                   8        -57.24586789         50.48701419         6.758853706         75.86644104          4.80456655        -21.86408024         166.0664968               False
                   3                   1         19.03897873        -17.23937404        -1.799604688         40.13917638         1.390443983         7.719884676         77.53983661               False
                   3                   2         20.89290404        -15.38544873         -5.50745531         3.860823617         1.390443983         4.938996709         34.33708272               False
                   3                   3        -20.89290404         15.38544873          5.50745531         3.860823617        -1.390443983         4.938996709         34.33708272               False
                   3                   4        -19.03897873         17.23937404         1.799604688         40.13917638        -1.390443983         7.719884676         77.53983661               False
                   3                   5         19.03897873        -17.23937404        -1.799604688         40.13917638        -1.390443983        -7.719884676         77.53983661               False
                   3                   6         20.89290404        -15.38544873         -5.50745531         3.860823617        -1.390443983        -4.938996709         34.33708272               False
                   3                   7        -20.89290404         15.38544873          5.50745531         3.860823617         1.390443983        -4.938996709         34.33708272               False
                   3                   8        -19.03897873         17.23937404         1.799604688         40.13917638         1.390443983        -7.719884676         77.53983661               False

***** Strain Data ******
          Element No         Integral No           Strain XX           Strain YY           Strain ZZ           Strain XY           Strain XZ           Strain YZ
                   1                   1     0.0006817602188    -0.0003740839222    -0.0003076762965      0.001328225093    -9.071450373e-05     6.640762571e-05
                   1                   2     0.0006212838829    -0.0004345602581    -0.0001867236249    -0.0007834631886    -9.071450373e-05     0.0002478366332
                   1                   3    -0.0006212838829     0.0004345602581     0.0001867236249    -0.0007834631886     9.071450373e-05     0.0002478366332
                   1                   4    -0.0006817602188     0.0003740839222     0.0003076762965      0.001328225093     9.071450373e-05     6.640762571e-05
                   1                   5     0.0006817602188    -0.0003740839222    -0.0003076762965      0.001328225093     9.071450373e-05    -6.640762571e-05
                   1                   6     0.0006212838829    -0.0004345602581    -0.0001867236249    -0.0007834631886     9.071450373e-05    -0.0002478366332
                   1                   7    -0.0006212838829     0.0004345602581     0.0001867236249    -0.0007834631886    -9.071450373e-05    -0.0002478366332
                   1                   8    -0.0006817602188     0.0003740839222     0.0003076762965      0.001328225093    -9.071450373e-05    -6.640762571e-05
                   2                   1     0.0003543791822    -0.0003125386593    -4.184052294e-05     0.0009392987938     5.948510967e-05     0.0002706981363
                   2                   2      0.000394035922    -0.0002728819195    -0.0001211540025    -0.0003945368891     5.948510967e-05      0.000151727917
                   2                   3     -0.000394035922     0.0002728819195     0.0001211540025    -0.0003945368891    -5.948510967e-05      0.000151727917
                   2                   4    -0.0003543791822     0.0003125386593     4.184052294e-05     0.0009392987938    -5.948510967e-05     0.0002706981363
                   2                   5     0.0003543791822    -0.0003125386593    -4.184052294e-05     0.0009392987938    -5.948510967e-05    -0.0002706981363
                   2                   6      0.000394035922    -0.0002728819195    -0.0001211540025    -0.0003945368891    -5.948510967e-05     -0.000151727917
                   2                   7     -0.000394035922     0.0002728819195     0.0001211540025    -0.0003945368891     5.948510967e-05     -0.000151727917
                   2                   8    -0.0003543791822     0.0003125386593     4.184052294e-05     0.0009392987938     5.948510967e-05    -0.0002706981363
                   3                   1     0.0001178603445    -0.0001067199345    -1.114040997e-05     0.0004969612314     1.721502075e-05     9.557952456e-05
                   3                   2      0.000129337025    -9.524325403e-05    -3.409377097e-05     4.780067335e-05     1.721502075e-05     6.114948307e-05
                   3                   3     -0.000129337025     9.524325403e-05     3.409377097e-05     4.780067335e-05    -1.721502075e-05     6.114948307e-05
                   3                   4    -0.0001178603445     0.0001067199345     1.114040997e-05     0.0004969612314    -1.721502075e-05     9.557952456e-05
                   3                   5     0.0001178603445    -0.0001067199345    -1.114040997e-05     0.0004969612314    -1.721502075e-05    -9.557952456e-05
                   3                   6      0.000129337025    -9.524325403e-05    -3.409377097e-05     4.780067335e-05    -1.721502075e-05    -6.114948307e-05
                   3                   7     -0.000129337025     9.524325403e-05     3.409377097e-05     4.780067335e-05     1.721502075e-05    -6.114948307e-05
                   3                   8    -0.0001178603445     0.0001067199345     1.114040997e-05     0.0004969612314     1.721502075e-05    -9.557952456e-05

***** Plastic Strain Data ******
          Element No         Integral No          PStrain XX          PStrain YY          PStrain ZZ          PStrain XY          PStrain XZ          PStrain YZ
                   1                   1                   0                   0                   0                   0                   0                   0
                   1                   2                   0                   0                   0                   0                   0                   0
                   1                   3                   0                   0                   0                   0                   0                   0
                   1                   4                   0                   0                   0                   0                   0                   0
                   1                   5                   0                   0                   0                   0                   0                   0
                   1                   6                   0                   0                   0                   0                   0                   0
                   1                   7                   0                   0                   0                   0                   0                   0
                   1                   8                   0                   0                   0                   0                   0                   0
                   2                   1                   0                   0                   0                   0                   0                   0
                   2                   2                   0                   0                   0                   0                   0                   0
                   2                   3                   0                   0                   0                   0                   0                   0
                   2                   4                   0                   0                   0                   0                   0                   0
                   2                   5                   0                   0                   0                   0                   0                   0
                   2                   6                   0                   0                   0                   0                   0                   0
                   2                   7                   0                   0                   0                   0                   0                   0
                   2                   8                   0                   0                   0                   0                   0                   0
                   3                   1                   0                   0                   0                   0                   0                   0
                   3                   2                   0                   0                   0                   0                   0                   0
                   3                   3                   0                   0                   0                   0                   0                   0
                   3                   4                   0                   0                   0                   0                   0                   0
                   3                   5                   0                   0                   0                   0                   0                   0
                   3                   6                   0                   0                   0                   0                   0                   0
                   3                   7                   0                   0                   0                   0                   0                   0
                   3                   8                   0                   0                   0                   0                   0                   0

***** Reaction Force Data ******
              NodeNo           Magnitude             X Force             Y Force             Z Force----------------------------------------------------------------------------------------------------
                   1         33.98320409                 -33                -5.5         5.967257363
                   2      1.01744172e-13     9.237055565e-14     9.769962617e-15    -4.152234112e-14
                   3     1.378727592e-13     1.350031198e-13     2.753353101e-14    -4.996003611e-15
                   4     3.408800406e-13    -8.981704269e-14     2.993161274e-13      1.36168854e-13
                   5         33.98320409                 -33                -5.5        -5.967257363
                   6     1.662181479e-13     1.421085472e-13       7.1942452e-14     4.751754545e-14
                   7     2.104118683e-13     1.065814104e-13     9.592326933e-14    -1.539879335e-13
                   8     1.879995287e-13    -3.930189507e-14     1.776356839e-13    -4.737876758e-14
                   9         33.98320409                  33                -5.5        -5.967257363
                  10     1.456863064e-13    -3.907985047e-14     1.358912982e-13    -3.508304758e-14
                  11     2.956143463e-13    -2.486899575e-14    -2.655653475e-13     1.274536032e-13
                  12     3.028664555e-13    -9.692247005e-14    -2.717825964e-13     9.202361095e-14
                  13         33.98320409                  33                -5.5         5.967257363
                  14     6.343484435e-14    -2.131628207e-14     5.950795412e-14    -5.329070518e-15
                  15     1.876781371e-13     7.993605777e-14    -1.492139745e-13     -8.10462808e-14
                  16     2.239182035e-13     2.997602166e-14    -2.211564265e-13    -1.818337148e-14

*Increment 56

***** Displacement Data ******
              NodeNo           Magnitude      X Displacement      Y Displacement      Z Displacement
----------------------------------------------------------------------------------------------------
                   1                   0                   0                   0                   0
                   2      0.002849698271      0.001862026164      0.002139359498     -0.000277091575
                   3      0.007923150969      0.003038164215      0.007316883211    -9.539160367e-05
                   4       0.01447981338      0.003434221114       0.01406660187     -4.28075403e-05
                   5                   0                   0                   0                   0
                   6      0.002849698271      0.001862026164      0.002139359498      0.000277091575
                   7      0.007923150969      0.003038164215      0.007316883211     9.539160367e-05
                   8       0.01447981338      0.003434221114       0.01406660187      4.28075403e-05
                   9                   0                   0                   0                   0
                  10      0.002849698271     -0.001862026164      0.002139359498      0.000277091575
                  11      0.007923150969     -0.003038164215      0.007316883211     9.539160367e-05
                  12       0.01447981338     -0.003434221114       0.01406660187      4.28075403e-05
                  13                   0                   0                   0                   0
                  14      0.002849698271     -0.001862026164      0.002139359498     -0.000277091575
                  15      0.007923150969     -0.003038164215      0.007316883211    -9.539160367e-05
                  16       0.01447981338     -0.003434221114       0.01406660187     -4.28075403e-05

***** Stress Data ******
          Element No         Integral No           Stress XX           Stress YY           Stress ZZ           Stress XY           Stress XZ           Stress YZ               Mises            YieldFlg
                   1                   1         112.1328695        -61.52764931        -50.60522024         109.2302594        -7.460157789         5.461214534         253.8319636               False
                   1                   2         102.1859925        -71.47452636        -30.71146613        -64.43025943        -7.460157789         20.38153011         196.4882334               False
                   1                   3        -102.1859925         71.47452636         30.71146613        -64.43025943         7.460157789         20.38153011         196.4882334               False
                   1                   4        -112.1328695         61.52764931         50.60522024         109.2302594         7.460157789         5.461214534         253.8319636               False
                   1                   5         112.1328695        -61.52764931        -50.60522024         109.2302594         7.460157789        -5.461214534         253.8319636               False
                   1                   6         102.1859925        -71.47452636        -30.71146613        -64.43025943         7.460157789        -20.38153011         196.4882334               False
                   1                   7        -102.1859925         71.47452636         30.71146613        -64.43025943        -7.460157789        -20.38153011         196.4882334               False
                   1                   8        -112.1328695         61.52764931         50.60522024         109.2302594        -7.460157789        -5.461214534         253.8319636               False
                   2                   1         58.28670185         -51.4049599        -6.881741955         77.24583088         4.891922306         22.26160897         169.0858877               False
                   2                   2         64.80926493        -44.88239682         -19.9268681        -32.44583088         4.891922306         12.47776436          116.682038               False
                   2                   3        -64.80926493         44.88239682          19.9268681        -32.44583088        -4.891922306         12.47776436          116.682038               False
                   2                   4        -58.28670185          51.4049599         6.881741955         77.24583088        -4.891922306         22.26160897         169.0858877               False
                   2                   5         58.28670185         -51.4049599        -6.881741955         77.24583088        -4.891922306        -22.26160897         169.0858877               False
                   2                   6         64.80926493        -44.88239682         -19.9268681        -32.44583088        -4.891922306        -12.47776436          116.682038               False
                   2                   7        -64.80926493         44.88239682          19.9268681        -32.44583088         4.891922306        -12.47776436          116.682038               False
                   2                   8        -58.28670185          51.4049599         6.881741955         77.24583088         4.891922306        -22.26160897         169.0858877               False
                   3                   1         19.38514198         -17.5528172        -1.832324773         40.86897959         1.415724783         7.860246215         78.94965182               False
                   3                   2         21.27277502        -15.66518416        -5.607590861          3.93102041         1.415724783         5.028796649         34.96139331               False
                   3                   3        -21.27277502         15.66518416         5.607590861          3.93102041        -1.415724783         5.028796649         34.96139331               False
                   3                   4        -19.38514198          17.5528172         1.832324773         40.86897959        -1.415724783         7.860246215         78.94965182               False
                   3                   5         19.38514198         -17.5528172        -1.832324773         40.86897959        -1.415724783        -7.860246215         78.94965182               False
                   3                   6         21.27277502        -15.66518416        -5.607590861          3.93102041        -1.415724783        -5.028796649         34.96139331               False
                   3                   7        -21.27277502         15.66518416         5.607590861          3.93102041         1.415724783        -5.028796649         34.96139331               False
                   3                   8        -19.38514198          17.5528172         1.832324773         40.86897959         1.415724783        -7.860246215         78.94965182               False

***** Strain Data ******
          Element No         Integral No           Strain XX           Strain YY           Strain ZZ           Strain XY           Strain XZ           Strain YZ
                   1                   1     0.0006941558591    -0.0003808854481     -0.000313270411      0.001352374641    -9.236385834e-05     6.761503709e-05
                   1                   2     0.0006325799535    -0.0004424613537    -0.0001901185999    -0.0007977079739    -9.236385834e-05     0.0002523427538
                   1                   3    -0.0006325799535     0.0004424613537     0.0001901185999    -0.0007977079739     9.236385834e-05     0.0002523427538
                   1                   4    -0.0006941558591     0.0003808854481      0.000313270411      0.001352374641     9.236385834e-05     6.761503709e-05
                   1                   5     0.0006941558591    -0.0003808854481     -0.000313270411      0.001352374641     9.236385834e-05    -6.761503709e-05
                   1                   6     0.0006325799535    -0.0004424613537    -0.0001901185999    -0.0007977079739     9.236385834e-05    -0.0002523427538
                   1                   7    -0.0006325799535     0.0004424613537     0.0001901185999    -0.0007977079739    -9.236385834e-05    -0.0002523427538
                   1                   8    -0.0006941558591     0.0003808854481      0.000313270411      0.001352374641    -9.236385834e-05    -6.761503709e-05
                   2                   1     0.0003608224401    -0.0003182211803    -4.260125972e-05     0.0009563769537     6.056665712e-05     0.0002756199206
                   2                   2     0.0004012002115    -0.0002778434089    -0.0001233568025     -0.000401710287     6.056665712e-05     0.0001544866064
                   2                   3    -0.0004012002115     0.0002778434089     0.0001233568025     -0.000401710287    -6.056665712e-05     0.0001544866064
                   2                   4    -0.0003608224401     0.0003182211803     4.260125972e-05     0.0009563769537    -6.056665712e-05     0.0002756199206
                   2                   5     0.0003608224401    -0.0003182211803    -4.260125972e-05     0.0009563769537    -6.056665712e-05    -0.0002756199206
                   2                   6     0.0004012002115    -0.0002778434089    -0.0001233568025     -0.000401710287    -6.056665712e-05    -0.0001544866064
                   2                   7    -0.0004012002115     0.0002778434089     0.0001233568025     -0.000401710287     6.056665712e-05    -0.0001544866064
                   2                   8    -0.0003608224401     0.0003182211803     4.260125972e-05     0.0009563769537     6.056665712e-05    -0.0002756199206
                   3                   1     0.0001200032599     -0.000108660297    -1.134296288e-05     0.0005059968902     1.752802112e-05     9.731733409e-05
                   3                   2     0.0001316886073    -9.697494956e-05    -3.471365771e-05      4.86697765e-05     1.752802112e-05     6.226129185e-05
                   3                   3    -0.0001316886073     9.697494956e-05     3.471365771e-05      4.86697765e-05    -1.752802112e-05     6.226129185e-05
                   3                   4    -0.0001200032599      0.000108660297     1.134296288e-05     0.0005059968902    -1.752802112e-05     9.731733409e-05
                   3                   5     0.0001200032599     -0.000108660297    -1.134296288e-05     0.0005059968902    -1.752802112e-05    -9.731733409e-05
                   3                   6     0.0001316886073    -9.697494956e-05    -3.471365771e-05      4.86697765e-05    -1.752802112e-05    -6.226129185e-05
                   3                   7    -0.0001316886073     9.697494956e-05     3.471365771e-05      4.86697765e-05     1.752802112e-05    -6.226129185e-05
                   3                   8    -0.0001200032599      0.000108660297     1.134296288e-05     0.0005059968902     1.752802112e-05    -9.731733409e-05

***** Plastic Strain Data ******
          Element No         Integral No          PStrain XX          PStrain YY          PStrain ZZ          PStrain XY          PStrain XZ          PStrain YZ
                   1                   1                   0                   0                   0                   0                   0                   0
                   1                   2                   0                   0                   0                   0                   0                   0
                   1                   3                   0                   0                   0                   0                   0                   0
                   1                   4                   0                   0                   0                   0                   0                   0
                   1                   5                   0                   0                   0                   0                   0                   0
                   1                   6                   0                   0                   0                   0                   0                   0
                   1                   7                   0                   0                   0                   0                   0                   0
                   1                   8                   0                   0                   0                   0                   0                   0
                   2                   1                   0                   0                   0                   0                   0                   0
                   2                   2                   0                   0                   0                   0                   0                   0
                   2                   3                   0                   0                   0                   0                   0                   0
                   2                   4                   0                   0                   0                   0                   0                   0
                   2                   5                   0                   0                   0                   0                   0                   0
                   2                   6                   0                   0                   0                   0                   0                   0
                   2                   7                   0                   0                   0                   0                   0                   0
                   2                   8                   0                   0                   0                   0                   0                   0
                   3                   1                   0                   0                   0                   0                   0                   0
                   3                   2                   0                   0                   0                   0                   0                   0
                   3                   3                   0                   0                   0                   0                   0                   0
                   3                   4                   0                   0                   0                   0                   0                   0
                   3                   5                   0                   0                   0                   0                   0                   0
                   3                   6                   0                   0                   0                   0                   0                   0
                   3                   7                   0                   0                   0                   0                   0                   0
                   3                   8                   0                   0                   0                   0                   0                   0

***** Reaction Force Data ******
              NodeNo           Magnitude             X Force             Y Force             Z Force----------------------------------------------------------------------------------------------------
                   1         34.60108053               -33.6                -5.6         6.075752951
                   2     1.094751963e-13     9.592326933e-14     3.197442311e-14    -4.196643033e-14
                   3     1.912607534e-13     1.616484724e-13     1.003641614e-13     1.942890293e-14
                   4     4.193400436e-13    -9.214851104e-14     3.748112931e-13     1.639244296e-13
                   5         34.60108053               -33.6                -5.6        -6.075752951
                   6     1.668997206e-13     1.314504061e-13     9.503509091e-14     3.930189507e-14
                   7     2.757753097e-13     1.136868377e-13     1.669775429e-13    -1.877387135e-13
                   8     2.294002892e-13    -5.662137426e-14     2.113864639e-13    -6.880607195e-14
                   9         34.60108053                33.6                -5.6        -6.075752951
                  10     1.388176628e-13    -3.907985047e-14     1.314504061e-13    -2.153832668e-14
                  11     3.996540281e-13    -2.664535259e-14    -3.623767952e-13     1.664224314e-13
                  12     3.965984376e-13      -1.2609358e-13    -3.517186542e-13     1.329839017e-13
                  13         34.60108053                33.6                -5.6         6.075752951
                  14     4.804021109e-14    -7.105427358e-15     4.707345624e-14    -6.439293543e-15
                  15     2.741963187e-13     1.243449788e-13    -2.184918912e-13    -1.094679902e-13
                  16     2.603035904e-13    -8.881784197e-15    -2.522426712e-13    -6.366088212e-14

*Increment 57

***** Displacement Data ******
              NodeNo           Magnitude      X Displacement      Y Displacement      Z Displacement
----------------------------------------------------------------------------------------------------
                   1                   0                   0                   0                   0
                   2       0.00290058574      0.001895276632      0.002177562346    -0.0002820396389
                   3      0.008064635808      0.003092417148      0.007447541839    -9.709502516e-05
                   4       0.01473838147      0.003495546491       0.01431779119    -4.357196066e-05
                   5                   0                   0                   0                   0
                   6       0.00290058574      0.001895276632      0.002177562346     0.0002820396389
                   7      0.008064635808      0.003092417148      0.007447541839     9.709502516e-05
                   8       0.01473838147      0.003495546491       0.01431779119     4.357196066e-05
                   9                   0                   0                   0                   0
                  10       0.00290058574     -0.001895276632      0.002177562346     0.0002820396389
                  11      0.008064635808     -0.003092417148      0.007447541839     9.709502516e-05
                  12       0.01473838147     -0.003495546491       0.01431779119     4.357196066e-05
                  13                   0                   0                   0                   0
                  14       0.00290058574     -0.001895276632      0.002177562346    -0.0002820396389
                  15      0.008064635808     -0.003092417148      0.007447541839    -9.709502516e-05
                  16       0.01473838147     -0.003495546491       0.01431779119    -4.357196066e-05

***** Stress Data ******
          Element No         Integral No           Stress XX           Stress YY           Stress ZZ           Stress XY           Stress XZ           Stress YZ               Mises            YieldFlg
                   1                   1         114.1352422        -62.62635733        -51.50888489         111.1807998        -7.593374893         5.558736222         258.3646772               False
                   1                   2         104.0107424        -72.75085719        -31.25988517        -65.58079977        -7.593374893         20.74548601         199.9969518               False
                   1                   3        -104.0107424         72.75085719         31.25988517        -65.58079977         7.593374893         20.74548601         199.9969518               False
                   1                   4        -114.1352422         62.62635733         51.50888489         111.1807998         7.593374893         5.558736222         258.3646772               False
                   1                   5         114.1352422        -62.62635733        -51.50888489         111.1807998         7.593374893        -5.558736222         258.3646772               False
                   1                   6         104.0107424        -72.75085719        -31.25988517        -65.58079977         7.593374893        -20.74548601         199.9969518               False
                   1                   7        -104.0107424         72.75085719         31.25988517        -65.58079977        -7.593374893        -20.74548601         199.9969518               False
                   1                   8        -114.1352422         62.62635733         51.50888489         111.1807998        -7.593374893        -5.558736222         258.3646772               False
                   2                   1         59.32753582        -52.32290561        -7.004630204         78.62522071         4.979278061          22.6591377         172.1052785               False
                   2                   2         65.96657323         -45.6838682        -20.28270503        -33.02522071         4.979278061         12.70058158         118.7656459               False
                   2                   3        -65.96657323          45.6838682         20.28270503        -33.02522071        -4.979278061         12.70058158         118.7656459               False
                   2                   4        -59.32753582         52.32290561         7.004630204         78.62522071        -4.979278061          22.6591377         172.1052785               False
                   2                   5         59.32753582        -52.32290561        -7.004630204         78.62522071        -4.979278061         -22.6591377         172.1052785               False
                   2                   6         65.96657323         -45.6838682        -20.28270503        -33.02522071        -4.979278061        -12.70058158         118.7656459               False
                   2                   7        -65.96657323          45.6838682         20.28270503        -33.02522071         4.979278061        -12.70058158         118.7656459               False
                   2                   8        -59.32753582         52.32290561         7.004630204         78.62522071         4.979278061         -22.6591377         172.1052785               False
                   3                   1         19.73130523        -17.86626037        -1.865044859          41.5987828         1.441005583         8.000607755         80.35946703               False
                   3                   2           21.652646        -15.94491959        -5.707726412         4.001217203         1.441005583          5.11859659         35.58570391               False
                   3                   3          -21.652646         15.94491959         5.707726412         4.001217203        -1.441005583          5.11859659         35.58570391               False
                   3                   4        -19.73130523         17.86626037         1.865044859          41.5987828        -1.441005583         8.000607755         80.35946703               False
                   3                   5         19.73130523        -17.86626037        -1.865044859          41.5987828        -1.441005583        -8.000607755         80.35946703               False
                   3                   6           21.652646        -15.94491959        -5.707726412         4.001217203        -1.441005583         -5.11859659         35.58570391               False
                   3                   7          -21.652646         15.94491959         5.707726412         4.001217203         1.441005583         -5.11859659         35.58570391               False
                   3                   8        -19.73130523         17.86626037         1.865044859          41.5987828         1.441005583        -8.000607755         80.35946703               False

***** Strain Data ******
          Element No         Integral No           Strain XX           Strain YY           Strain ZZ           Strain XY           Strain XZ           Strain YZ
                   1                   1     0.0007065514994     -0.000387686974    -0.0003188645255      0.001376524188    -9.401321296e-05     6.882244847e-05
                   1                   2     0.0006438760241    -0.0004503624493    -0.0001935135749    -0.0008119527591    -9.401321296e-05     0.0002568488744
                   1                   3    -0.0006438760241     0.0004503624493     0.0001935135749    -0.0008119527591     9.401321296e-05     0.0002568488744
                   1                   4    -0.0007065514994      0.000387686974     0.0003188645255      0.001376524188     9.401321296e-05     6.882244847e-05
                   1                   5     0.0007065514994     -0.000387686974    -0.0003188645255      0.001376524188     9.401321296e-05    -6.882244847e-05
                   1                   6     0.0006438760241    -0.0004503624493    -0.0001935135749    -0.0008119527591     9.401321296e-05    -0.0002568488744
                   1                   7    -0.0006438760241     0.0004503624493     0.0001935135749    -0.0008119527591    -9.401321296e-05    -0.0002568488744
                   1                   8    -0.0007065514994      0.000387686974     0.0003188645255      0.001376524188    -9.401321296e-05    -6.882244847e-05
                   2                   1     0.0003672656979    -0.0003239037014     -4.33619965e-05     0.0009734551136     6.164820457e-05     0.0002805417049
                   2                   2      0.000408364501    -0.0002828048984    -0.0001255596026     -0.000408883685     6.164820457e-05     0.0001572452958
                   2                   3     -0.000408364501     0.0002828048984     0.0001255596026     -0.000408883685    -6.164820457e-05     0.0001572452958
                   2                   4    -0.0003672656979     0.0003239037014      4.33619965e-05     0.0009734551136    -6.164820457e-05     0.0002805417049
                   2                   5     0.0003672656979    -0.0003239037014     -4.33619965e-05     0.0009734551136    -6.164820457e-05    -0.0002805417049
                   2                   6      0.000408364501    -0.0002828048984    -0.0001255596026     -0.000408883685    -6.164820457e-05    -0.0001572452958
                   2                   7     -0.000408364501     0.0002828048984     0.0001255596026     -0.000408883685     6.164820457e-05    -0.0001572452958
                   2                   8    -0.0003672656979     0.0003239037014      4.33619965e-05     0.0009734551136     6.164820457e-05    -0.0002805417049
                   3                   1     0.0001221461752    -0.0001106006594    -1.154551579e-05     0.0005150325489      1.78410215e-05     9.905514363e-05
                   3                   2     0.0001340401895    -9.870664509e-05    -3.533354446e-05     4.953887965e-05      1.78410215e-05     6.337310063e-05
                   3                   3    -0.0001340401895     9.870664509e-05     3.533354446e-05     4.953887965e-05     -1.78410215e-05     6.337310063e-05
                   3                   4    -0.0001221461752     0.0001106006594     1.154551579e-05     0.0005150325489     -1.78410215e-05     9.905514363e-05
                   3                   5     0.0001221461752    -0.0001106006594    -1.154551579e-05     0.0005150325489     -1.78410215e-05    -9.905514363e-05
                   3                   6     0.0001340401895    -9.870664509e-05    -3.533354446e-05     4.953887965e-05     -1.78410215e-05    -6.337310063e-05
                   3                   7    -0.0001340401895     9.870664509e-05     3.533354446e-05     4.953887965e-05      1.78410215e-05    -6.337310063e-05
                   3                   8    -0.0001221461752     0.0001106006594     1.154551579e-05     0.0005150325489      1.78410215e-05    -9.905514363e-05

***** Plastic Strain Data ******
          Element No         Integral No          PStrain XX          PStrain YY          PStrain ZZ          PStrain XY          PStrain XZ          PStrain YZ
                   1                   1                   0                   0                   0                   0                   0                   0
                   1                   2                   0                   0                   0                   0                   0                   0
                   1                   3                   0                   0                   0                   0                   0                   0
                   1                   4                   0                   0                   0                   0                   0                   0
                   1                   5                   0                   0                   0                   0                   0                   0
                   1                   6                   0                   0                   0                   0                   0                   0
                   1                   7                   0                   0                   0                   0                   0                   0
                   1                   8                   0                   0                   0                   0                   0                   0
                   2                   1                   0                   0                   0                   0                   0                   0
                   2                   2                   0                   0                   0                   0                   0                   0
                   2                   3                   0                   0                   0                   0                   0                   0
                   2                   4                   0                   0                   0                   0                   0                   0
                   2                   5                   0                   0                   0                   0                   0                   0
                   2                   6                   0                   0                   0                   0                   0                   0
                   2                   7                   0                   0                   0                   0                   0                   0
                   2                   8                   0                   0                   0                   0                   0                   0
                   3                   1                   0                   0                   0                   0                   0                   0
                   3                   2                   0                   0                   0                   0                   0                   0
                   3                   3                   0                   0                   0                   0                   0                   0
                   3                   4                   0                   0                   0                   0                   0                   0
                   3                   5                   0                   0                   0                   0                   0                   0
                   3                   6                   0                   0                   0                   0                   0                   0
                   3                   7                   0                   0                   0                   0                   0                   0
                   3                   8                   0                   0                   0                   0                   0                   0

***** Reaction Force Data ******
              NodeNo           Magnitude             X Force             Y Force             Z Force----------------------------------------------------------------------------------------------------
                   1         35.21895697               -34.2                -5.7          6.18424854
                   2     1.021878125e-13     9.237055565e-14     1.865174681e-14    -3.952393968e-14
                   3     1.366974469e-13     9.414691249e-14     9.769962617e-14    -1.665334537e-14
                   4     2.902454304e-13     -3.16413562e-15     2.566835633e-13      1.35447209e-13
                   5         35.21895697               -34.2                -5.7         -6.18424854
                   6     1.711789658e-13     1.456612608e-13     8.260059303e-14     3.552713679e-14
                   7     2.053678835e-13     8.171241461e-14     1.243449788e-13    -1.415534356e-13
                   8     1.294929918e-13     3.264055692e-14     1.216804435e-13    -2.994826609e-14
                   9         35.21895697                34.2                -5.7         -6.18424854
                  10     1.157838599e-13    -2.842170943e-14     1.092459456e-13    -2.575717417e-14
                  11     2.957694983e-13    -8.171241461e-14    -2.637889907e-13     1.059152765e-13
                  12      3.18609417e-13    -1.156019724e-13    -2.824407375e-13      9.15170717e-14
                  13         35.21895697                34.2                -5.7          6.18424854
                  14     4.886242763e-14                   0     4.707345624e-14    -1.310063169e-14
                  15     1.596993208e-13     4.263256415e-14    -1.341149414e-13    -7.549516567e-14
                  16     2.201882765e-13     3.763656053e-14    -2.167155344e-13    -1.003711003e-14

*Increment 58

***** Displacement Data ******
              NodeNo           Magnitude      X Displacement      Y Displacement      Z Displacement
----------------------------------------------------------------------------------------------------
                   1                   0                   0                   0                   0
                   2       0.00295147321      0.001928527099      0.002215765194    -0.0002869877027
                   3      0.008206120646       0.00314667008      0.007578200468    -9.879844666e-05
                   4       0.01499694957      0.003556871868       0.01456898051    -4.433638103e-05
                   5                   0                   0                   0                   0
                   6       0.00295147321      0.001928527099      0.002215765194     0.0002869877027
                   7      0.008206120646       0.00314667008      0.007578200468     9.879844666e-05
                   8       0.01499694957      0.003556871868       0.01456898051     4.433638103e-05
                   9                   0                   0                   0                   0
                  10       0.00295147321     -0.001928527099      0.002215765194     0.0002869877027
                  11      0.008206120646      -0.00314667008      0.007578200468     9.879844666e-05
                  12       0.01499694957     -0.003556871868       0.01456898051     4.433638103e-05
                  13                   0                   0                   0                   0
                  14       0.00295147321     -0.001928527099      0.002215765194    -0.0002869877027
                  15      0.008206120646      -0.00314667008      0.007578200468    -9.879844666e-05
                  16       0.01499694957     -0.003556871868       0.01456898051    -4.433638103e-05

***** Stress Data ******
          Element No         Integral No           Stress XX           Stress YY           Stress ZZ           Stress XY           Stress XZ           Stress YZ               Mises            YieldFlg
                   1                   1         116.1376149        -63.72506535        -52.41254953         113.1313401        -7.726591996          5.65625791         262.8973909               False
                   1                   2         105.8354922        -74.02718802        -31.80830421        -66.73134012        -7.726591996          21.1094419         203.5056703               False
                   1                   3        -105.8354922         74.02718802         31.80830421        -66.73134012         7.726591996          21.1094419         203.5056703               False
                   1                   4        -116.1376149         63.72506535         52.41254953         113.1313401         7.726591996          5.65625791         262.8973909               False
                   1                   5         116.1376149        -63.72506535        -52.41254953         113.1313401         7.726591996         -5.65625791         262.8973909               False
                   1                   6         105.8354922        -74.02718802        -31.80830421        -66.73134012         7.726591996         -21.1094419         203.5056703               False
                   1                   7        -105.8354922         74.02718802         31.80830421        -66.73134012        -7.726591996         -21.1094419         203.5056703               False
                   1                   8        -116.1376149         63.72506535         52.41254953         113.1313401        -7.726591996         -5.65625791         262.8973909               False
                   2                   1         60.36836978        -53.24085132        -7.127518453         80.00461055         5.066633817         23.05666644         175.1246694               False
                   2                   2         67.12388153        -46.48533957        -20.63854196        -33.60461055         5.066633817          12.9233988         120.8492537               False
                   2                   3        -67.12388153         46.48533957         20.63854196        -33.60461055        -5.066633817          12.9233988         120.8492537               False
                   2                   4        -60.36836978         53.24085132         7.127518453         80.00461055        -5.066633817         23.05666644         175.1246694               False
                   2                   5         60.36836978        -53.24085132        -7.127518453         80.00461055        -5.066633817        -23.05666644         175.1246694               False
                   2                   6         67.12388153        -46.48533957        -20.63854196        -33.60461055        -5.066633817         -12.9233988         120.8492537               False
                   2                   7        -67.12388153         46.48533957         20.63854196        -33.60461055         5.066633817         -12.9233988         120.8492537               False
                   2                   8        -60.36836978         53.24085132         7.127518453         80.00461055         5.066633817        -23.05666644         175.1246694               False
                   3                   1         20.07746848        -18.17970353        -1.897764944           42.328586         1.466286382         8.140969294         81.76928225               False
                   3                   2         22.03251699        -16.22465502        -5.807861963         4.071413996         1.466286382          5.20839653          36.2100145               False
                   3                   3        -22.03251699         16.22465502         5.807861963         4.071413996        -1.466286382          5.20839653          36.2100145               False
                   3                   4        -20.07746848         18.17970353         1.897764944           42.328586        -1.466286382         8.140969294         81.76928225               False
                   3                   5         20.07746848        -18.17970353        -1.897764944           42.328586        -1.466286382        -8.140969294         81.76928225               False
                   3                   6         22.03251699        -16.22465502        -5.807861963         4.071413996        -1.466286382         -5.20839653          36.2100145               False
                   3                   7        -22.03251699         16.22465502         5.807861963         4.071413996         1.466286382         -5.20839653          36.2100145               False
                   3                   8        -20.07746848         18.17970353         1.897764944           42.328586         1.466286382        -8.140969294         81.76928225               False

***** Strain Data ******
          Element No         Integral No           Strain XX           Strain YY           Strain ZZ           Strain XY           Strain XZ           Strain YZ
                   1                   1     0.0007189471398    -0.0003944884998      -0.00032445864      0.001400673735    -9.566256757e-05     7.002985984e-05
                   1                   2     0.0006551720947    -0.0004582635449    -0.0001969085499    -0.0008261975444    -9.566256757e-05      0.000261354995
                   1                   3    -0.0006551720947     0.0004582635449     0.0001969085499    -0.0008261975444     9.566256757e-05      0.000261354995
                   1                   4    -0.0007189471398     0.0003944884998       0.00032445864      0.001400673735     9.566256757e-05     7.002985984e-05
                   1                   5     0.0007189471398    -0.0003944884998      -0.00032445864      0.001400673735     9.566256757e-05    -7.002985984e-05
                   1                   6     0.0006551720947    -0.0004582635449    -0.0001969085499    -0.0008261975444     9.566256757e-05     -0.000261354995
                   1                   7    -0.0006551720947     0.0004582635449     0.0001969085499    -0.0008261975444    -9.566256757e-05     -0.000261354995
                   1                   8    -0.0007189471398     0.0003944884998       0.00032445864      0.001400673735    -9.566256757e-05    -7.002985984e-05
                   2                   1     0.0003737089558    -0.0003295862225    -4.412273328e-05     0.0009905332735     6.272975202e-05     0.0002854634892
                   2                   2     0.0004155287904    -0.0002877663878    -0.0001277624026     -0.000416057083     6.272975202e-05     0.0001600039852
                   2                   3    -0.0004155287904     0.0002877663878     0.0001277624026     -0.000416057083    -6.272975202e-05     0.0001600039852
                   2                   4    -0.0003737089558     0.0003295862225     4.412273328e-05     0.0009905332735    -6.272975202e-05     0.0002854634892
                   2                   5     0.0003737089558    -0.0003295862225    -4.412273328e-05     0.0009905332735    -6.272975202e-05    -0.0002854634892
                   2                   6     0.0004155287904    -0.0002877663878    -0.0001277624026     -0.000416057083    -6.272975202e-05    -0.0001600039852
                   2                   7    -0.0004155287904     0.0002877663878     0.0001277624026     -0.000416057083     6.272975202e-05    -0.0001600039852
                   2                   8    -0.0003737089558     0.0003295862225     4.412273328e-05     0.0009905332735     6.272975202e-05    -0.0002854634892
                   3                   1     0.0001242890906    -0.0001125410219     -1.17480687e-05     0.0005240682077     1.815402188e-05     0.0001007929532
                   3                   2     0.0001363917718    -0.0001004383406     -3.59534312e-05      5.04079828e-05     1.815402188e-05     6.448490942e-05
                   3                   3    -0.0001363917718     0.0001004383406      3.59534312e-05      5.04079828e-05    -1.815402188e-05     6.448490942e-05
                   3                   4    -0.0001242890906     0.0001125410219      1.17480687e-05     0.0005240682077    -1.815402188e-05     0.0001007929532
                   3                   5     0.0001242890906    -0.0001125410219     -1.17480687e-05     0.0005240682077    -1.815402188e-05    -0.0001007929532
                   3                   6     0.0001363917718    -0.0001004383406     -3.59534312e-05      5.04079828e-05    -1.815402188e-05    -6.448490942e-05
                   3                   7    -0.0001363917718     0.0001004383406      3.59534312e-05      5.04079828e-05     1.815402188e-05    -6.448490942e-05
                   3                   8    -0.0001242890906     0.0001125410219      1.17480687e-05     0.0005240682077     1.815402188e-05    -0.0001007929532

***** Plastic Strain Data ******
          Element No         Integral No          PStrain XX          PStrain YY          PStrain ZZ          PStrain XY          PStrain XZ          PStrain YZ
                   1                   1                   0                   0                   0                   0                   0                   0
                   1                   2                   0                   0                   0                   0                   0                   0
                   1                   3                   0                   0                   0                   0                   0                   0
                   1                   4                   0                   0                   0                   0                   0                   0
                   1                   5                   0                   0                   0                   0                   0                   0
                   1                   6                   0                   0                   0                   0                   0                   0
                   1                   7                   0                   0                   0                   0                   0                   0
                   1                   8                   0                   0                   0                   0                   0                   0
                   2                   1                   0                   0                   0                   0                   0                   0
                   2                   2                   0                   0                   0                   0                   0                   0
                   2                   3                   0                   0                   0                   0                   0                   0
                   2                   4                   0                   0                   0                   0                   0                   0
                   2                   5                   0                   0                   0                   0                   0                   0
                   2                   6                   0                   0                   0                   0                   0                   0
                   2                   7                   0                   0                   0                   0                   0                   0
                   2                   8                   0                   0                   0                   0                   0                   0
                   3                   1                   0                   0                   0                   0                   0                   0
                   3                   2                   0                   0                   0                   0                   0                   0
                   3                   3                   0                   0                   0                   0                   0                   0
                   3                   4                   0                   0                   0                   0                   0                   0
                   3                   5                   0                   0                   0                   0                   0                   0
                   3                   6                   0                   0                   0                   0                   0                   0
                   3                   7                   0                   0                   0                   0                   0                   0
                   3                   8                   0                   0                   0                   0                   0                   0

***** Reaction Force Data ******
              NodeNo           Magnitude             X Force             Y Force             Z Force----------------------------------------------------------------------------------------------------
                   1         35.83683341               -34.8                -5.8         6.292744128
                   2     1.018156233e-13     8.526512829e-14    -7.993605777e-15    -5.506706202e-14
                   3     1.758105378e-13     1.687538997e-13     3.552713679e-14    -3.419486916e-14
                   4     2.583646225e-13    -4.612976667e-14     2.184918912e-13     1.299446661e-13
                   5         35.83683341               -34.8                -5.8        -6.292744128
                   6        1.463124e-13     1.207922651e-13      6.30606678e-14     5.329070518e-14
                   7     2.106916659e-13     1.083577672e-13     1.012523398e-13    -1.496580637e-13
                   8     1.570260548e-13     -2.24265051e-14     1.412203687e-13    -6.489253579e-14
                   9         35.83683341                34.8                -5.8        -6.292744128
                  10     1.683912267e-13    -4.263256415e-14     1.589839371e-13    -3.552713679e-14
                  11     2.918636125e-13    -4.440892099e-14     -2.60236277e-13     1.244560011e-13
                  12     3.126464254e-13     -1.27009514e-13    -2.620126338e-13      1.13867249e-13
                  13         35.83683341                34.8                -5.8         6.292744128
                  14     7.863389212e-14    -7.105427358e-15     7.815970093e-14     4.884981308e-15
                  15     1.571525299e-13     1.083577672e-13    -9.769962617e-14     -5.83977311e-14
                  16     1.838180686e-13     1.698641228e-14    -1.829647545e-13    -4.943961907e-15

*Increment 59

***** Displacement Data ******
              NodeNo           Magnitude      X Displacement      Y Displacement      Z Displacement
----------------------------------------------------------------------------------------------------
                   1                   0                   0                   0                   0
                   2      0.003002360679      0.001961777566      0.002253968042    -0.0002919357665
                   3      0.008347605485      0.003200923013      0.007708859097    -0.0001005018681
                   4       0.01525551766      0.003618197245       0.01482016983    -4.510080139e-05
                   5                   0                   0                   0                   0
                   6      0.003002360679      0.001961777566      0.002253968042     0.0002919357665
                   7      0.008347605485      0.003200923013      0.007708859097     0.0001005018681
                   8       0.01525551766      0.003618197245       0.01482016983     4.510080139e-05
                   9                   0                   0                   0                   0
                  10      0.003002360679     -0.001961777566      0.002253968042     0.0002919357665
                  11      0.008347605485     -0.003200923013      0.007708859097     0.0001005018681
                  12       0.01525551766     -0.003618197245       0.01482016983     4.510080139e-05
                  13                   0                   0                   0                   0
                  14      0.003002360679     -0.001961777566      0.002253968042    -0.0002919357665
                  15      0.008347605485     -0.003200923013      0.007708859097    -0.0001005018681
                  16       0.01525551766     -0.003618197245       0.01482016983    -4.510080139e-05

***** Stress Data ******
          Element No         Integral No           Stress XX           Stress YY           Stress ZZ           Stress XY           Stress XZ           Stress YZ               Mises            YieldFlg
                   1                   1         118.1399876        -64.82377338        -53.31621418         115.0818805        -7.859809099         5.753779599         267.4301045               False
                   1                   2         107.6602421        -75.30351884        -32.35672325        -67.88188047        -7.859809099          21.4733978         207.0143887               False
                   1                   3        -107.6602421         75.30351884         32.35672325        -67.88188047         7.859809099          21.4733978         207.0143887               False
                   1                   4        -118.1399876         64.82377338         53.31621418         115.0818805         7.859809099         5.753779599         267.4301045               False
                   1                   5         118.1399876        -64.82377338        -53.31621418         115.0818805         7.859809099        -5.753779599         267.4301045               False
                   1                   6         107.6602421        -75.30351884        -32.35672325        -67.88188047         7.859809099         -21.4733978         207.0143887               False
                   1                   7        -107.6602421         75.30351884         32.35672325        -67.88188047        -7.859809099         -21.4733978         207.0143887               False
                   1                   8        -118.1399876         64.82377338         53.31621418         115.0818805        -7.859809099        -5.753779599         267.4301045               False
                   2                   1         61.40920374        -54.15879704        -7.250406703         81.38400039         5.153989572         23.45419517         178.1440602               False
                   2                   2         68.28118984        -47.28681094         -20.9943789        -34.18400039         5.153989572         13.14621602         122.9328615               False
                   2                   3        -68.28118984         47.28681094          20.9943789        -34.18400039        -5.153989572         13.14621602         122.9328615               False
                   2                   4        -61.40920374         54.15879704         7.250406703         81.38400039        -5.153989572         23.45419517         178.1440602               False
                   2                   5         61.40920374        -54.15879704        -7.250406703         81.38400039        -5.153989572        -23.45419517         178.1440602               False
                   2                   6         68.28118984        -47.28681094         -20.9943789        -34.18400039        -5.153989572        -13.14621602         122.9328615               False
                   2                   7        -68.28118984         47.28681094          20.9943789        -34.18400039         5.153989572        -13.14621602         122.9328615               False
                   2                   8        -61.40920374         54.15879704         7.250406703         81.38400039         5.153989572        -23.45419517         178.1440602               False
                   3                   1         20.42363173         -18.4931467        -1.930485029         43.05838921         1.491567182         8.281330834         83.17909746               False
                   3                   2         22.41238797        -16.50439045        -5.907997514         4.141610789         1.491567182          5.29819647          36.8343251               False
                   3                   3        -22.41238797         16.50439045         5.907997514         4.141610789        -1.491567182          5.29819647          36.8343251               False
                   3                   4        -20.42363173          18.4931467         1.930485029         43.05838921        -1.491567182         8.281330834         83.17909746               False
                   3                   5         20.42363173         -18.4931467        -1.930485029         43.05838921        -1.491567182        -8.281330834         83.17909746               False
                   3                   6         22.41238797        -16.50439045        -5.907997514         4.141610789        -1.491567182         -5.29819647          36.8343251               False
                   3                   7        -22.41238797         16.50439045         5.907997514         4.141610789         1.491567182         -5.29819647          36.8343251               False
                   3                   8        -20.42363173          18.4931467         1.930485029         43.05838921         1.491567182        -8.281330834         83.17909746               False

***** Strain Data ******
          Element No         Integral No           Strain XX           Strain YY           Strain ZZ           Strain XY           Strain XZ           Strain YZ
                   1                   1     0.0007313427801    -0.0004012900257    -0.0003300527545      0.001424823282    -9.731192218e-05     7.123727122e-05
                   1                   2     0.0006664681653    -0.0004661646405    -0.0002003035249    -0.0008404423296    -9.731192218e-05     0.0002658611156
                   1                   3    -0.0006664681653     0.0004661646405     0.0002003035249    -0.0008404423296     9.731192218e-05     0.0002658611156
                   1                   4    -0.0007313427801     0.0004012900257     0.0003300527545      0.001424823282     9.731192218e-05     7.123727122e-05
                   1                   5     0.0007313427801    -0.0004012900257    -0.0003300527545      0.001424823282     9.731192218e-05    -7.123727122e-05
                   1                   6     0.0006664681653    -0.0004661646405    -0.0002003035249    -0.0008404423296     9.731192218e-05    -0.0002658611156
                   1                   7    -0.0006664681653     0.0004661646405     0.0002003035249    -0.0008404423296    -9.731192218e-05    -0.0002658611156
                   1                   8    -0.0007313427801     0.0004012900257     0.0003300527545      0.001424823282    -9.731192218e-05    -7.123727122e-05
                   2                   1     0.0003801522136    -0.0003352687436    -4.488347006e-05      0.001007611433     6.381129947e-05     0.0002903852735
                   2                   2     0.0004226930799    -0.0002927278773    -0.0001299652027     -0.000423230481     6.381129947e-05     0.0001627626746
                   2                   3    -0.0004226930799     0.0002927278773     0.0001299652027     -0.000423230481    -6.381129947e-05     0.0001627626746
                   2                   4    -0.0003801522136     0.0003352687436     4.488347006e-05      0.001007611433    -6.381129947e-05     0.0002903852735
                   2                   5     0.0003801522136    -0.0003352687436    -4.488347006e-05      0.001007611433    -6.381129947e-05    -0.0002903852735
                   2                   6     0.0004226930799    -0.0002927278773    -0.0001299652027     -0.000423230481    -6.381129947e-05    -0.0001627626746
                   2                   7    -0.0004226930799     0.0002927278773     0.0001299652027     -0.000423230481     6.381129947e-05    -0.0001627626746
                   2                   8    -0.0003801522136     0.0003352687436     4.488347006e-05      0.001007611433     6.381129947e-05    -0.0002903852735
                   3                   1     0.0001264320059    -0.0001144813843    -1.195062161e-05     0.0005331038664     1.846702225e-05     0.0001025307627
                   3                   2     0.0001387433541    -0.0001021700361    -3.657331795e-05     5.127708595e-05     1.846702225e-05      6.55967182e-05
                   3                   3    -0.0001387433541     0.0001021700361     3.657331795e-05     5.127708595e-05    -1.846702225e-05      6.55967182e-05
                   3                   4    -0.0001264320059     0.0001144813843     1.195062161e-05     0.0005331038664    -1.846702225e-05     0.0001025307627
                   3                   5     0.0001264320059    -0.0001144813843    -1.195062161e-05     0.0005331038664    -1.846702225e-05    -0.0001025307627
                   3                   6     0.0001387433541    -0.0001021700361    -3.657331795e-05     5.127708595e-05    -1.846702225e-05     -6.55967182e-05
                   3                   7    -0.0001387433541     0.0001021700361     3.657331795e-05     5.127708595e-05     1.846702225e-05     -6.55967182e-05
                   3                   8    -0.0001264320059     0.0001144813843     1.195062161e-05     0.0005331038664     1.846702225e-05    -0.0001025307627

***** Plastic Strain Data ******
          Element No         Integral No          PStrain XX          PStrain YY          PStrain ZZ          PStrain XY          PStrain XZ          PStrain YZ
                   1                   1                   0                   0                   0                   0                   0                   0
                   1                   2                   0                   0                   0                   0                   0                   0
                   1                   3                   0                   0                   0                   0                   0                   0
                   1                   4                   0                   0                   0                   0                   0                   0
                   1                   5                   0                   0                   0                   0                   0                   0
                   1                   6                   0                   0                   0                   0                   0                   0
                   1                   7                   0                   0                   0                   0                   0                   0
                   1                   8                   0                   0                   0                   0                   0                   0
                   2                   1                   0                   0                   0                   0                   0                   0
                   2                   2                   0                   0                   0                   0                   0                   0
                   2                   3                   0                   0                   0                   0                   0                   0
                   2                   4                   0                   0                   0                   0                   0                   0
                   2                   5                   0                   0                   0                   0                   0                   0
                   2                   6                   0                   0                   0                   0                   0                   0
                   2                   7                   0                   0                   0                   0                   0                   0
                   2                   8                   0                   0                   0                   0                   0                   0
                   3                   1                   0                   0                   0                   0                   0                   0
                   3                   2                   0                   0                   0                   0                   0                   0
                   3                   3                   0                   0                   0                   0                   0                   0
                   3                   4                   0                   0                   0                   0                   0                   0
                   3                   5                   0                   0                   0                   0                   0                   0
                   3                   6                   0                   0                   0                   0                   0                   0
                   3                   7                   0                   0                   0                   0                   0                   0
                   3                   8                   0                   0                   0                   0                   0                   0

***** Reaction Force Data ******
              NodeNo           Magnitude             X Force             Y Force             Z Force----------------------------------------------------------------------------------------------------
                   1         36.45470985               -35.4                -5.9         6.401239716
                   2     8.961033629e-14     7.460698725e-14     2.753353101e-14    -4.130029652e-14
                   3     1.797654046e-13     1.598721155e-13     7.904787935e-14     -2.25375274e-14
                   4     2.959993892e-13    -2.986499936e-14     2.549072065e-13     1.474653732e-13
                   5         36.45470985               -35.4                -5.9        -6.401239716
                   6     1.757813699e-13     1.314504061e-13     1.110223025e-13       3.5971226e-14
                   7      2.21958546e-13     1.243449788e-13     8.881784197e-14    -1.609823386e-13
                   8       1.1013418e-13    -7.105427358e-15     1.012523398e-13    -4.274358645e-14
                   9         36.45470985                35.4                -5.9        -6.401239716
                  10     1.431049486e-13    -2.131628207e-14     1.403321903e-13     -1.82076576e-14
                  11     3.075690702e-13    -1.083577672e-13    -2.611244554e-13      1.21125332e-13
                  12     3.602326957e-13    -1.507405312e-13    -3.099742685e-13     1.046940312e-13
                  13         36.45470985                35.4                -5.9         6.401239716
                  14     5.246458723e-14                   0     5.062616992e-14    -1.376676551e-14
                  15     1.620840826e-13     8.348877145e-14    -1.074695888e-13    -8.804068585e-14
                  16     1.804366788e-13     6.994405055e-15    -1.803002192e-13     5.516420654e-16

*Increment 60

***** Displacement Data ******
              NodeNo           Magnitude      X Displacement      Y Displacement      Z Displacement
----------------------------------------------------------------------------------------------------
                   1                   0                   0                   0                   0
                   2      0.003053248148      0.001995028033       0.00229217089    -0.0002968838304
                   3      0.008489090324      0.003255175945      0.007839517726    -0.0001022052896
                   4       0.01551408576      0.003679522622       0.01507135915    -4.586522175e-05
                   5                   0                   0                   0                   0
                   6      0.003053248148      0.001995028033       0.00229217089     0.0002968838304
                   7      0.008489090324      0.003255175945      0.007839517726     0.0001022052896
                   8       0.01551408576      0.003679522622       0.01507135915     4.586522175e-05
                   9                   0                   0                   0                   0
                  10      0.003053248148     -0.001995028033       0.00229217089     0.0002968838304
                  11      0.008489090324     -0.003255175945      0.007839517726     0.0001022052896
                  12       0.01551408576     -0.003679522622       0.01507135915     4.586522175e-05
                  13                   0                   0                   0                   0
                  14      0.003053248148     -0.001995028033       0.00229217089    -0.0002968838304
                  15      0.008489090324     -0.003255175945      0.007839517726    -0.0001022052896
                  16       0.01551408576     -0.003679522622       0.01507135915    -4.586522175e-05

***** Stress Data ******
          Element No         Integral No           Stress XX           Stress YY           Stress ZZ           Stress XY           Stress XZ           Stress YZ               Mises            YieldFlg
                   1                   1         120.1423602         -65.9224814        -54.21987883         117.0324208        -7.993026203         5.851301287         271.9628181               False
                   1                   2          109.484992        -76.57984967        -32.90514229        -69.03242081        -7.993026203         21.83735369         210.5231072               False
                   1                   3         -109.484992         76.57984967         32.90514229        -69.03242081         7.993026203         21.83735369         210.5231072               False
                   1                   4        -120.1423602          65.9224814         54.21987883         117.0324208         7.993026203         5.851301287         271.9628181               False
                   1                   5         120.1423602         -65.9224814        -54.21987883         117.0324208         7.993026203        -5.851301287         271.9628181               False
                   1                   6          109.484992        -76.57984967        -32.90514229        -69.03242081         7.993026203        -21.83735369         210.5231072               False
                   1                   7         -109.484992         76.57984967         32.90514229        -69.03242081        -7.993026203        -21.83735369         210.5231072               False
                   1                   8        -120.1423602          65.9224814         54.21987883         117.0324208        -7.993026203        -5.851301287         271.9628181               False
                   2                   1          62.4500377        -55.07674275        -7.373294952         82.76339023         5.241345328          23.8517239         181.1634511               False
                   2                   2         69.43849814        -48.08828231        -21.35021583        -34.76339023         5.241345328         13.36903324         125.0164693               False
                   2                   3        -69.43849814         48.08828231         21.35021583        -34.76339023        -5.241345328         13.36903324         125.0164693               False
                   2                   4         -62.4500377         55.07674275         7.373294952         82.76339023        -5.241345328          23.8517239         181.1634511               False
                   2                   5          62.4500377        -55.07674275        -7.373294952         82.76339023        -5.241345328         -23.8517239         181.1634511               False
                   2                   6         69.43849814        -48.08828231        -21.35021583        -34.76339023        -5.241345328        -13.36903324         125.0164693               False
                   2                   7        -69.43849814         48.08828231         21.35021583        -34.76339023         5.241345328        -13.36903324         125.0164693               False
                   2                   8         -62.4500377         55.07674275         7.373294952         82.76339023         5.241345328         -23.8517239         181.1634511               False
                   3                   1         20.76979498        -18.80658986        -1.963205114         43.78819242         1.516847982         8.421692374         84.58891267               False
                   3                   2         22.79225895        -16.78412589        -6.008133066         4.211807582         1.516847982          5.38799641         37.45863569               False
                   3                   3        -22.79225895         16.78412589         6.008133066         4.211807582        -1.516847982          5.38799641         37.45863569               False
                   3                   4        -20.76979498         18.80658986         1.963205114         43.78819242        -1.516847982         8.421692374         84.58891267               False
                   3                   5         20.76979498        -18.80658986        -1.963205114         43.78819242        -1.516847982        -8.421692374         84.58891267               False
                   3                   6         22.79225895        -16.78412589        -6.008133066         4.211807582        -1.516847982         -5.38799641         37.45863569               False
                   3                   7        -22.79225895         16.78412589         6.008133066         4.211807582         1.516847982         -5.38799641         37.45863569               False
                   3                   8        -20.76979498         18.80658986         1.963205114         43.78819242         1.516847982        -8.421692374         84.58891267               False

***** Strain Data ******
          Element No         Integral No           Strain XX           Strain YY           Strain ZZ           Strain XY           Strain XZ           Strain YZ
                   1                   1     0.0007437384205    -0.0004080915515    -0.0003356468689      0.001448972829     -9.89612768e-05      7.24446826e-05
                   1                   2     0.0006777642359    -0.0004740657361    -0.0002036984999    -0.0008546871148     -9.89612768e-05     0.0002703672362
                   1                   3    -0.0006777642359     0.0004740657361     0.0002036984999    -0.0008546871148      9.89612768e-05     0.0002703672362
                   1                   4    -0.0007437384205     0.0004080915515     0.0003356468689      0.001448972829      9.89612768e-05      7.24446826e-05
                   1                   5     0.0007437384205    -0.0004080915515    -0.0003356468689      0.001448972829      9.89612768e-05     -7.24446826e-05
                   1                   6     0.0006777642359    -0.0004740657361    -0.0002036984999    -0.0008546871148      9.89612768e-05    -0.0002703672362
                   1                   7    -0.0006777642359     0.0004740657361     0.0002036984999    -0.0008546871148     -9.89612768e-05    -0.0002703672362
                   1                   8    -0.0007437384205     0.0004080915515     0.0003356468689      0.001448972829     -9.89612768e-05     -7.24446826e-05
                   2                   1     0.0003865954715    -0.0003409512646    -4.564420684e-05      0.001024689593     6.489284691e-05     0.0002953070578
                   2                   2     0.0004298573694    -0.0002976893667    -0.0001321680027     -0.000430403879     6.489284691e-05      0.000165521364
                   2                   3    -0.0004298573694     0.0002976893667     0.0001321680027     -0.000430403879    -6.489284691e-05      0.000165521364
                   2                   4    -0.0003865954715     0.0003409512646     4.564420684e-05      0.001024689593    -6.489284691e-05     0.0002953070578
                   2                   5     0.0003865954715    -0.0003409512646    -4.564420684e-05      0.001024689593    -6.489284691e-05    -0.0002953070578
                   2                   6     0.0004298573694    -0.0002976893667    -0.0001321680027     -0.000430403879    -6.489284691e-05     -0.000165521364
                   2                   7    -0.0004298573694     0.0002976893667     0.0001321680027     -0.000430403879     6.489284691e-05     -0.000165521364
                   2                   8    -0.0003865954715     0.0003409512646     4.564420684e-05      0.001024689593     6.489284691e-05    -0.0002953070578
                   3                   1     0.0001285749213    -0.0001164217468    -1.215317452e-05     0.0005421395252     1.878002263e-05     0.0001042685722
                   3                   2     0.0001410949364    -0.0001039017317    -3.719320469e-05     5.214618911e-05     1.878002263e-05     6.670852698e-05
                   3                   3    -0.0001410949364     0.0001039017317     3.719320469e-05     5.214618911e-05    -1.878002263e-05     6.670852698e-05
                   3                   4    -0.0001285749213     0.0001164217468     1.215317452e-05     0.0005421395252    -1.878002263e-05     0.0001042685722
                   3                   5     0.0001285749213    -0.0001164217468    -1.215317452e-05     0.0005421395252    -1.878002263e-05    -0.0001042685722
                   3                   6     0.0001410949364    -0.0001039017317    -3.719320469e-05     5.214618911e-05    -1.878002263e-05    -6.670852698e-05
                   3                   7    -0.0001410949364     0.0001039017317     3.719320469e-05     5.214618911e-05     1.878002263e-05    -6.670852698e-05
                   3                   8    -0.0001285749213     0.0001164217468     1.215317452e-05     0.0005421395252     1.878002263e-05    -0.0001042685722

***** Plastic Strain Data ******
          Element No         Integral No          PStrain XX          PStrain YY          PStrain ZZ          PStrain XY          PStrain XZ          PStrain YZ
                   1                   1                   0                   0                   0                   0                   0                   0
                   1                   2                   0                   0                   0                   0                   0                   0
                   1                   3                   0                   0                   0                   0                   0                   0
                   1                   4                   0                   0                   0                   0                   0                   0
                   1                   5                   0                   0                   0                   0                   0                   0
                   1                   6                   0                   0                   0                   0                   0                   0
                   1                   7                   0                   0                   0                   0                   0                   0
                   1                   8                   0                   0                   0                   0                   0                   0
                   2                   1                   0                   0                   0                   0                   0                   0
                   2                   2                   0                   0                   0                   0                   0                   0
                   2                   3                   0                   0                   0                   0                   0                   0
                   2                   4                   0                   0                   0                   0                   0                   0
                   2                   5                   0                   0                   0                   0                   0                   0
                   2                   6                   0                   0                   0                   0                   0                   0
                   2                   7                   0                   0                   0                   0                   0                   0
                   2                   8                   0                   0                   0                   0                   0                   0
                   3                   1                   0                   0                   0                   0                   0                   0
                   3                   2                   0                   0                   0                   0                   0                   0
                   3                   3                   0                   0                   0                   0                   0                   0
                   3                   4                   0                   0                   0                   0                   0                   0
                   3                   5                   0                   0                   0                   0                   0                   0
                   3                   6                   0                   0                   0                   0                   0                   0
                   3                   7                   0                   0                   0                   0                   0                   0
                   3                   8                   0                   0                   0                   0                   0                   0

***** Reaction Force Data ******
              NodeNo           Magnitude             X Force             Y Force             Z Force----------------------------------------------------------------------------------------------------
                   1         37.07258628                 -36                  -6         6.509735305
                   2     7.864893879e-14     7.105427358e-14     2.575717417e-14    -2.176037128e-14
                   3      1.77829347e-13     1.350031198e-13     1.056932319e-13     4.718447855e-14
                   4     4.071486212e-13    -4.612976667e-14      3.70370401e-13     1.626893065e-13
                   5         37.07258628                 -36                  -6        -6.509735305
                   6     1.519226526e-13     1.136868377e-13     9.325873407e-14     3.819167205e-14
                   7     1.795812425e-13     8.348877145e-14     4.085620731e-14    -1.536548666e-13
                   8     1.729396819e-13    -5.817568649e-14     1.598721155e-13    -3.105848911e-14
                   9         37.07258628                  36                  -6        -6.509735305
                  10     1.470981407e-13    -5.329070518e-14     1.358912982e-13     -1.82076576e-14
                  11     2.875814753e-13    -3.019806627e-14    -2.673417043e-13     1.015854068e-13
                  12      3.53579959e-13    -1.243449788e-13    -3.206324095e-13     8.217038161e-14
                  13         37.07258628                  36                  -6         6.509735305
                  14     6.601263243e-14    -1.065814104e-14      5.86197757e-14    -2.842170943e-14
                  15     2.671044318e-13     1.314504061e-13     -1.98951966e-13    -1.203481759e-13
                  16     2.191639573e-13     3.108624469e-14    -2.140509991e-13    -3.533631721e-14

*Increment 61

***** Displacement Data ******
              NodeNo           Magnitude      X Displacement      Y Displacement      Z Displacement
----------------------------------------------------------------------------------------------------
                   1                   0                   0                   0                   0
                   2      0.003104135617        0.0020282785      0.002330373738    -0.0003018318942
                   3      0.008630575162      0.003309428877      0.007970176354    -0.0001039087111
                   4       0.01577265386      0.003740847999       0.01532254847    -4.662964211e-05
                   5                   0                   0                   0                   0
                   6      0.003104135617        0.0020282785      0.002330373738     0.0003018318942
                   7      0.008630575162      0.003309428877      0.007970176354     0.0001039087111
                   8       0.01577265386      0.003740847999       0.01532254847     4.662964211e-05
                   9                   0                   0                   0                   0
                  10      0.003104135617       -0.0020282785      0.002330373738     0.0003018318942
                  11      0.008630575162     -0.003309428877      0.007970176354     0.0001039087111
                  12       0.01577265386     -0.003740847999       0.01532254847     4.662964211e-05
                  13                   0                   0                   0                   0
                  14      0.003104135617       -0.0020282785      0.002330373738    -0.0003018318942
                  15      0.008630575162     -0.003309428877      0.007970176354    -0.0001039087111
                  16       0.01577265386     -0.003740847999       0.01532254847    -4.662964211e-05

***** Stress Data ******
          Element No         Integral No           Stress XX           Stress YY           Stress ZZ           Stress XY           Stress XZ           Stress YZ               Mises            YieldFlg
                   1                   1         122.1447329        -67.02118942        -55.12354347         118.9829612        -8.126243306         5.948822975         276.4955318               False
                   1                   2         111.3097418         -77.8561805        -33.45356133        -70.18296116        -8.126243306         22.20130959         214.0318257               False
                   1                   3        -111.3097418          77.8561805         33.45356133        -70.18296116         8.126243306         22.20130959         214.0318257               False
                   1                   4        -122.1447329         67.02118942         55.12354347         118.9829612         8.126243306         5.948822975         276.4955318               False
                   1                   5         122.1447329        -67.02118942        -55.12354347         118.9829612         8.126243306        -5.948822975         276.4955318               False
                   1                   6         111.3097418         -77.8561805        -33.45356133        -70.18296116         8.126243306        -22.20130959         214.0318257               False
                   1                   7        -111.3097418          77.8561805         33.45356133        -70.18296116        -8.126243306        -22.20130959         214.0318257               False
                   1                   8        -122.1447329         67.02118942         55.12354347         118.9829612        -8.126243306        -5.948822975         276.4955318               False
                   2                   1         63.49087166        -55.99468846        -7.496183201         84.14278006         5.328701083         24.24925263         184.1828419               False
                   2                   2         70.59580644        -48.88975368        -21.70605276        -35.34278006         5.328701083         13.59185046         127.1000772               False
                   2                   3        -70.59580644         48.88975368         21.70605276        -35.34278006        -5.328701083         13.59185046         127.1000772               False
                   2                   4        -63.49087166         55.99468846         7.496183201         84.14278006        -5.328701083         24.24925263         184.1828419               False
                   2                   5         63.49087166        -55.99468846        -7.496183201         84.14278006        -5.328701083        -24.24925263         184.1828419               False
                   2                   6         70.59580644        -48.88975368        -21.70605276        -35.34278006        -5.328701083        -13.59185046         127.1000772               False
                   2                   7        -70.59580644         48.88975368         21.70605276        -35.34278006         5.328701083        -13.59185046         127.1000772               False
                   2                   8        -63.49087166         55.99468846         7.496183201         84.14278006         5.328701083        -24.24925263         184.1828419               False
                   3                   1         21.11595823        -19.12003303        -1.995925199         44.51799563         1.542128781         8.562053913         85.99872788               False
                   3                   2         23.17212993        -17.06386132        -6.108268617         4.282004375         1.542128781          5.47779635         38.08294629               False
                   3                   3        -23.17212993         17.06386132         6.108268617         4.282004375        -1.542128781          5.47779635         38.08294629               False
                   3                   4        -21.11595823         19.12003303         1.995925199         44.51799563        -1.542128781         8.562053913         85.99872788               False
                   3                   5         21.11595823        -19.12003303        -1.995925199         44.51799563        -1.542128781        -8.562053913         85.99872788               False
                   3                   6         23.17212993        -17.06386132        -6.108268617         4.282004375        -1.542128781         -5.47779635         38.08294629               False
                   3                   7        -23.17212993         17.06386132         6.108268617         4.282004375         1.542128781         -5.47779635         38.08294629               False
                   3                   8        -21.11595823         19.12003303         1.995925199         44.51799563         1.542128781        -8.562053913         85.99872788               False

***** Strain Data ******
          Element No         Integral No           Strain XX           Strain YY           Strain ZZ           Strain XY           Strain XZ           Strain YZ
                   1                   1     0.0007561340608    -0.0004148930774    -0.0003412409834      0.001473122376    -0.0001006106314     7.365209397e-05
                   1                   2     0.0006890603065    -0.0004819668317    -0.0002070934749    -0.0008689319001    -0.0001006106314     0.0002748733568
                   1                   3    -0.0006890603065     0.0004819668317     0.0002070934749    -0.0008689319001     0.0001006106314     0.0002748733568
                   1                   4    -0.0007561340608     0.0004148930774     0.0003412409834      0.001473122376     0.0001006106314     7.365209397e-05
                   1                   5     0.0007561340608    -0.0004148930774    -0.0003412409834      0.001473122376     0.0001006106314    -7.365209397e-05
                   1                   6     0.0006890603065    -0.0004819668317    -0.0002070934749    -0.0008689319001     0.0001006106314    -0.0002748733568
                   1                   7    -0.0006890603065     0.0004819668317     0.0002070934749    -0.0008689319001    -0.0001006106314    -0.0002748733568
                   1                   8    -0.0007561340608     0.0004148930774     0.0003412409834      0.001473122376    -0.0001006106314    -7.365209397e-05
                   2                   1     0.0003930387293    -0.0003466337857    -4.640494362e-05      0.001041767753     6.597439436e-05     0.0003002288421
                   2                   2     0.0004370216589    -0.0003026508561    -0.0001343708028     -0.000437577277     6.597439436e-05     0.0001682800534
                   2                   3    -0.0004370216589     0.0003026508561     0.0001343708028     -0.000437577277    -6.597439436e-05     0.0001682800534
                   2                   4    -0.0003930387293     0.0003466337857     4.640494362e-05      0.001041767753    -6.597439436e-05     0.0003002288421
                   2                   5     0.0003930387293    -0.0003466337857    -4.640494362e-05      0.001041767753    -6.597439436e-05    -0.0003002288421
                   2                   6     0.0004370216589    -0.0003026508561    -0.0001343708028     -0.000437577277    -6.597439436e-05    -0.0001682800534
                   2                   7    -0.0004370216589     0.0003026508561     0.0001343708028     -0.000437577277     6.597439436e-05    -0.0001682800534
                   2                   8    -0.0003930387293     0.0003466337857     4.640494362e-05      0.001041767753     6.597439436e-05    -0.0003002288421
                   3                   1     0.0001307178366    -0.0001183621092    -1.235572743e-05     0.0005511751839     1.909302301e-05     0.0001060063818
                   3                   2     0.0001434465186    -0.0001056334272    -3.781309144e-05     5.301529226e-05     1.909302301e-05     6.782033576e-05
                   3                   3    -0.0001434465186     0.0001056334272     3.781309144e-05     5.301529226e-05    -1.909302301e-05     6.782033576e-05
                   3                   4    -0.0001307178366     0.0001183621092     1.235572743e-05     0.0005511751839    -1.909302301e-05     0.0001060063818
                   3                   5     0.0001307178366    -0.0001183621092    -1.235572743e-05     0.0005511751839    -1.909302301e-05    -0.0001060063818
                   3                   6     0.0001434465186    -0.0001056334272    -3.781309144e-05     5.301529226e-05    -1.909302301e-05    -6.782033576e-05
                   3                   7    -0.0001434465186     0.0001056334272     3.781309144e-05     5.301529226e-05     1.909302301e-05    -6.782033576e-05
                   3                   8    -0.0001307178366     0.0001183621092     1.235572743e-05     0.0005511751839     1.909302301e-05    -0.0001060063818

***** Plastic Strain Data ******
          Element No         Integral No          PStrain XX          PStrain YY          PStrain ZZ          PStrain XY          PStrain XZ          PStrain YZ
                   1                   1                   0                   0                   0                   0                   0                   0
                   1                   2                   0                   0                   0                   0                   0                   0
                   1                   3                   0                   0                   0                   0                   0                   0
                   1                   4                   0                   0                   0                   0                   0                   0
                   1                   5                   0                   0                   0                   0                   0                   0
                   1                   6                   0                   0                   0                   0                   0                   0
                   1                   7                   0                   0                   0                   0                   0                   0
                   1                   8                   0                   0                   0                   0                   0                   0
                   2                   1                   0                   0                   0                   0                   0                   0
                   2                   2                   0                   0                   0                   0                   0                   0
                   2                   3                   0                   0                   0                   0                   0                   0
                   2                   4                   0                   0                   0                   0                   0                   0
                   2                   5                   0                   0                   0                   0                   0                   0
                   2                   6                   0                   0                   0                   0                   0                   0
                   2                   7                   0                   0                   0                   0                   0                   0
                   2                   8                   0                   0                   0                   0                   0                   0
                   3                   1                   0                   0                   0                   0                   0                   0
                   3                   2                   0                   0                   0                   0                   0                   0
                   3                   3                   0                   0                   0                   0                   0                   0
                   3                   4                   0                   0                   0                   0                   0                   0
                   3                   5                   0                   0                   0                   0                   0                   0
                   3                   6                   0                   0                   0                   0                   0                   0
                   3                   7                   0                   0                   0                   0                   0                   0
                   3                   8                   0                   0                   0                   0                   0                   0

***** Reaction Force Data ******
              NodeNo           Magnitude             X Force             Y Force             Z Force----------------------------------------------------------------------------------------------------
                   1         37.69046272               -36.6                -6.1         6.618230893
                   2     8.623224517e-14     7.105427358e-14     2.131628207e-14    -4.396483178e-14
                   3       2.0978906e-13     1.616484724e-13     1.314504061e-13     2.453592884e-14
                   4     4.530742804e-13    -6.883382753e-14      4.04121181e-13      1.92935945e-13
                   5         37.69046272               -36.6                -6.1        -6.618230893
                   6     1.475151791e-13      1.10134124e-13     8.881784197e-14     4.174438573e-14
                   7     2.671883131e-13     1.350031198e-13     1.554312234e-13     -1.70308212e-13
                   8     1.448653898e-13    -3.286260153e-14     1.358912982e-13    -3.794187187e-14
                   9         37.69046272                36.6                -6.1        -6.618230893
                  10     1.389225757e-13    -3.552713679e-14     1.314504061e-13    -2.753353101e-14
                  11     3.206465753e-13    -4.618527782e-14    -2.895461648e-13     1.297850716e-13
                  12     4.201630238e-13    -1.552091788e-13    -3.774758284e-13     9.979517213e-14
                  13         37.69046272                36.6                -6.1         6.618230893
                  14      6.89182959e-14     1.421085472e-14     6.572520306e-14    -1.509903313e-14
                  15     2.634922269e-13      1.43884904e-13    -1.900701818e-13    -1.122435478e-13
                  16     2.723107153e-13    -1.632027846e-14    -2.664535259e-13    -5.375214163e-14

*Increment 62

***** Displacement Data ******
              NodeNo           Magnitude      X Displacement      Y Displacement      Z Displacement
----------------------------------------------------------------------------------------------------
                   1                   0                   0                   0                   0
                   2      0.003155023086      0.002061528968      0.002368576587    -0.0003067799581
                   3      0.008772060001       0.00336368181      0.008100834983    -0.0001056121326
                   4       0.01603122195      0.003802173376       0.01557373779    -4.739406248e-05
                   5                   0                   0                   0                   0
                   6      0.003155023086      0.002061528968      0.002368576587     0.0003067799581
                   7      0.008772060001       0.00336368181      0.008100834983     0.0001056121326
                   8       0.01603122195      0.003802173376       0.01557373779     4.739406248e-05
                   9                   0                   0                   0                   0
                  10      0.003155023086     -0.002061528968      0.002368576587     0.0003067799581
                  11      0.008772060001      -0.00336368181      0.008100834983     0.0001056121326
                  12       0.01603122195     -0.003802173376       0.01557373779     4.739406248e-05
                  13                   0                   0                   0                   0
                  14      0.003155023086     -0.002061528968      0.002368576587    -0.0003067799581
                  15      0.008772060001      -0.00336368181      0.008100834983    -0.0001056121326
                  16       0.01603122195     -0.003802173376       0.01557373779    -4.739406248e-05

***** Stress Data ******
          Element No         Integral No           Stress XX           Stress YY           Stress ZZ           Stress XY           Stress XZ           Stress YZ               Mises            YieldFlg
                   1                   1         124.1471056        -68.11989745        -56.02720812         120.9335015        -8.259460409         6.046344663         281.0282454               False
                   1                   2         113.1344917        -79.13251133        -34.00198036        -71.33350151        -8.259460409         22.56526548         217.5405441               False
                   1                   3        -113.1344917         79.13251133         34.00198036        -71.33350151         8.259460409         22.56526548         217.5405441               False
                   1                   4        -124.1471056         68.11989745         56.02720812         120.9335015         8.259460409         6.046344663         281.0282454               False
                   1                   5         124.1471056        -68.11989745        -56.02720812         120.9335015         8.259460409        -6.046344663         281.0282454               False
                   1                   6         113.1344917        -79.13251133        -34.00198036        -71.33350151         8.259460409        -22.56526548         217.5405441               False
                   1                   7        -113.1344917         79.13251133         34.00198036        -71.33350151        -8.259460409        -22.56526548         217.5405441               False
                   1                   8        -124.1471056         68.11989745         56.02720812         120.9335015        -8.259460409        -6.046344663         281.0282454               False
                   2                   1         64.53170562        -56.91263417         -7.61907145          85.5221699         5.416056839         24.64678136         187.2022328               False
                   2                   2         71.75311474        -49.69122506        -22.06188969         -35.9221699         5.416056839         13.81466768          129.183685               False
                   2                   3        -71.75311474         49.69122506         22.06188969         -35.9221699        -5.416056839         13.81466768          129.183685               False
                   2                   4        -64.53170562         56.91263417          7.61907145          85.5221699        -5.416056839         24.64678136         187.2022328               False
                   2                   5         64.53170562        -56.91263417         -7.61907145          85.5221699        -5.416056839        -24.64678136         187.2022328               False
                   2                   6         71.75311474        -49.69122506        -22.06188969         -35.9221699        -5.416056839        -13.81466768          129.183685               False
                   2                   7        -71.75311474         49.69122506         22.06188969         -35.9221699         5.416056839        -13.81466768          129.183685               False
                   2                   8        -64.53170562         56.91263417          7.61907145          85.5221699         5.416056839        -24.64678136         187.2022328               False
                   3                   1         21.46212147        -19.43347619        -2.028645285         45.24779883         1.567409581         8.702415453         87.40854309               False
                   3                   2         23.55200092        -17.34359675        -6.208404168         4.352201168         1.567409581          5.56759629         38.70725688               False
                   3                   3        -23.55200092         17.34359675         6.208404168         4.352201168        -1.567409581          5.56759629         38.70725688               False
                   3                   4        -21.46212147         19.43347619         2.028645285         45.24779883        -1.567409581         8.702415453         87.40854309               False
                   3                   5         21.46212147        -19.43347619        -2.028645285         45.24779883        -1.567409581        -8.702415453         87.40854309               False
                   3                   6         23.55200092        -17.34359675        -6.208404168         4.352201168        -1.567409581         -5.56759629         38.70725688               False
                   3                   7        -23.55200092         17.34359675         6.208404168         4.352201168         1.567409581         -5.56759629         38.70725688               False
                   3                   8        -21.46212147         19.43347619         2.028645285         45.24779883         1.567409581        -8.702415453         87.40854309               False

***** Strain Data ******
          Element No         Integral No           Strain XX           Strain YY           Strain ZZ           Strain XY           Strain XZ           Strain YZ
                   1                   1     0.0007685297011    -0.0004216946032    -0.0003468350979      0.001497271923     -0.000102259986     7.485950535e-05
                   1                   2     0.0007003563771    -0.0004898679273    -0.0002104884499    -0.0008831766853     -0.000102259986     0.0002793794774
                   1                   3    -0.0007003563771     0.0004898679273     0.0002104884499    -0.0008831766853      0.000102259986     0.0002793794774
                   1                   4    -0.0007685297011     0.0004216946032     0.0003468350979      0.001497271923      0.000102259986     7.485950535e-05
                   1                   5     0.0007685297011    -0.0004216946032    -0.0003468350979      0.001497271923      0.000102259986    -7.485950535e-05
                   1                   6     0.0007003563771    -0.0004898679273    -0.0002104884499    -0.0008831766853      0.000102259986    -0.0002793794774
                   1                   7    -0.0007003563771     0.0004898679273     0.0002104884499    -0.0008831766853     -0.000102259986    -0.0002793794774
                   1                   8    -0.0007685297011     0.0004216946032     0.0003468350979      0.001497271923     -0.000102259986    -7.485950535e-05
                   2                   1     0.0003994819872    -0.0003523163068    -4.716568041e-05      0.001058845913     6.705594181e-05     0.0003051506264
                   2                   2     0.0004441859484    -0.0003076123456    -0.0001365736028    -0.0004447506749     6.705594181e-05     0.0001710387428
                   2                   3    -0.0004441859484     0.0003076123456     0.0001365736028    -0.0004447506749    -6.705594181e-05     0.0001710387428
                   2                   4    -0.0003994819872     0.0003523163068     4.716568041e-05      0.001058845913    -6.705594181e-05     0.0003051506264
                   2                   5     0.0003994819872    -0.0003523163068    -4.716568041e-05      0.001058845913    -6.705594181e-05    -0.0003051506264
                   2                   6     0.0004441859484    -0.0003076123456    -0.0001365736028    -0.0004447506749    -6.705594181e-05    -0.0001710387428
                   2                   7    -0.0004441859484     0.0003076123456     0.0001365736028    -0.0004447506749     6.705594181e-05    -0.0001710387428
                   2                   8    -0.0003994819872     0.0003523163068     4.716568041e-05      0.001058845913     6.705594181e-05    -0.0003051506264
                   3                   1      0.000132860752    -0.0001203024717    -1.255828033e-05     0.0005602108427     1.940602339e-05     0.0001077441913
                   3                   2     0.0001457981009    -0.0001073651227    -3.843297818e-05     5.388439541e-05     1.940602339e-05     6.893214455e-05
                   3                   3    -0.0001457981009     0.0001073651227     3.843297818e-05     5.388439541e-05    -1.940602339e-05     6.893214455e-05
                   3                   4     -0.000132860752     0.0001203024717     1.255828033e-05     0.0005602108427    -1.940602339e-05     0.0001077441913
                   3                   5      0.000132860752    -0.0001203024717    -1.255828033e-05     0.0005602108427    -1.940602339e-05    -0.0001077441913
                   3                   6     0.0001457981009    -0.0001073651227    -3.843297818e-05     5.388439541e-05    -1.940602339e-05    -6.893214455e-05
                   3                   7    -0.0001457981009     0.0001073651227     3.843297818e-05     5.388439541e-05     1.940602339e-05    -6.893214455e-05
                   3                   8     -0.000132860752     0.0001203024717     1.255828033e-05     0.0005602108427     1.940602339e-05    -0.0001077441913

***** Plastic Strain Data ******
          Element No         Integral No          PStrain XX          PStrain YY          PStrain ZZ          PStrain XY          PStrain XZ          PStrain YZ
                   1                   1                   0                   0                   0                   0                   0                   0
                   1                   2                   0                   0                   0                   0                   0                   0
                   1                   3                   0                   0                   0                   0                   0                   0
                   1                   4                   0                   0                   0                   0                   0                   0
                   1                   5                   0                   0                   0                   0                   0                   0
                   1                   6                   0                   0                   0                   0                   0                   0
                   1                   7                   0                   0                   0                   0                   0                   0
                   1                   8                   0                   0                   0                   0                   0                   0
                   2                   1                   0                   0                   0                   0                   0                   0
                   2                   2                   0                   0                   0                   0                   0                   0
                   2                   3                   0                   0                   0                   0                   0                   0
                   2                   4                   0                   0                   0                   0                   0                   0
                   2                   5                   0                   0                   0                   0                   0                   0
                   2                   6                   0                   0                   0                   0                   0                   0
                   2                   7                   0                   0                   0                   0                   0                   0
                   2                   8                   0                   0                   0                   0                   0                   0
                   3                   1                   0                   0                   0                   0                   0                   0
                   3                   2                   0                   0                   0                   0                   0                   0
                   3                   3                   0                   0                   0                   0                   0                   0
                   3                   4                   0                   0                   0                   0                   0                   0
                   3                   5                   0                   0                   0                   0                   0                   0
                   3                   6                   0                   0                   0                   0                   0                   0
                   3                   7                   0                   0                   0                   0                   0                   0
                   3                   8                   0                   0                   0                   0                   0                   0

***** Reaction Force Data ******
              NodeNo           Magnitude             X Force             Y Force             Z Force----------------------------------------------------------------------------------------------------
                   1         38.30833916               -37.2                -6.2         6.726726482
                   2     6.141289757e-14     2.842170943e-14     5.329070518e-15     -5.41788836e-14
                   3     1.987866339e-13     1.634248292e-13     1.127986593e-13    -9.214851104e-15
                   4     3.556693099e-13    -5.834221994e-14     3.090860901e-13     1.660199755e-13
                   5         38.30833916               -37.2                -6.2        -6.726726482
                   6     1.321633663e-13     8.171241461e-14     9.237055565e-14     4.751754545e-14
                   7     2.160536509e-13     1.367794766e-13     1.003641614e-13    -1.337818745e-13
                   8     1.408767591e-13    -2.997602166e-14     1.350031198e-13     -2.68673972e-14
                   9         38.30833916                37.2                -6.2        -6.726726482
                  10     1.244084039e-13    -3.907985047e-14     1.154631946e-13    -2.486899575e-14
                  11     2.541184822e-13    -3.197442311e-14    -2.344791028e-13     9.259260025e-14
                  12     3.656327743e-13    -1.619815393e-13    -3.073097332e-13      1.14061538e-13
                  13         38.30833916                37.2                -6.2         6.726726482
                  14      6.03046331e-14                   0     5.950795412e-14    -9.769962617e-15
                  15     2.208156286e-13     1.527666882e-13    -1.367794766e-13    -8.193445922e-14
                  16     2.451846794e-13     9.658940314e-15    -2.406963517e-13    -4.568914691e-14

*Increment 63

***** Displacement Data ******
              NodeNo           Magnitude      X Displacement      Y Displacement      Z Displacement
----------------------------------------------------------------------------------------------------
                   1                   0                   0                   0                   0
                   2      0.003205910555      0.002094779435      0.002406779435    -0.0003117280219
                   3       0.00891354484      0.003417934742      0.008231493612    -0.0001073155541
                   4       0.01628979005      0.003863498753       0.01582492711    -4.815848284e-05
                   5                   0                   0                   0                   0
                   6      0.003205910555      0.002094779435      0.002406779435     0.0003117280219
                   7       0.00891354484      0.003417934742      0.008231493612     0.0001073155541
                   8       0.01628979005      0.003863498753       0.01582492711     4.815848284e-05
                   9                   0                   0                   0                   0
                  10      0.003205910555     -0.002094779435      0.002406779435     0.0003117280219
                  11       0.00891354484     -0.003417934742      0.008231493612     0.0001073155541
                  12       0.01628979005     -0.003863498753       0.01582492711     4.815848284e-05
                  13                   0                   0                   0                   0
                  14      0.003205910555     -0.002094779435      0.002406779435    -0.0003117280219
                  15       0.00891354484     -0.003417934742      0.008231493612    -0.0001073155541
                  16       0.01628979005     -0.003863498753       0.01582492711    -4.815848284e-05

***** Stress Data ******
          Element No         Integral No           Stress XX           Stress YY           Stress ZZ           Stress XY           Stress XZ           Stress YZ               Mises            YieldFlg
                   1                   1         126.1494782        -69.21860547        -56.93087277         122.8840419        -8.392677513         6.143866351         285.5609591               False
                   1                   2         114.9592416        -80.40884215         -34.5503994        -72.48404186        -8.392677513         22.92922138         221.0492626               False
                   1                   3        -114.9592416         80.40884215          34.5503994        -72.48404186         8.392677513         22.92922138         221.0492626               False
                   1                   4        -126.1494782         69.21860547         56.93087277         122.8840419         8.392677513         6.143866351         285.5609591               False
                   1                   5         126.1494782        -69.21860547        -56.93087277         122.8840419         8.392677513        -6.143866351         285.5609591               False
                   1                   6         114.9592416        -80.40884215         -34.5503994        -72.48404186         8.392677513        -22.92922138         221.0492626               False
                   1                   7        -114.9592416         80.40884215          34.5503994        -72.48404186        -8.392677513        -22.92922138         221.0492626               False
                   1                   8        -126.1494782         69.21860547         56.93087277         122.8840419        -8.392677513        -6.143866351         285.5609591               False
                   2                   1         65.57253959        -57.83057989        -7.741959699         86.90155974         5.503412594         25.04431009         190.2216236               False
                   2                   2         72.91042305        -50.49269643        -22.41772662        -36.50155974         5.503412594         14.03748491         131.2672928               False
                   2                   3        -72.91042305         50.49269643         22.41772662        -36.50155974        -5.503412594         14.03748491         131.2672928               False
                   2                   4        -65.57253959         57.83057989         7.741959699         86.90155974        -5.503412594         25.04431009         190.2216236               False
                   2                   5         65.57253959        -57.83057989        -7.741959699         86.90155974        -5.503412594        -25.04431009         190.2216236               False
                   2                   6         72.91042305        -50.49269643        -22.41772662        -36.50155974        -5.503412594        -14.03748491         131.2672928               False
                   2                   7        -72.91042305         50.49269643         22.41772662        -36.50155974         5.503412594        -14.03748491         131.2672928               False
                   2                   8        -65.57253959         57.83057989         7.741959699         86.90155974         5.503412594        -25.04431009         190.2216236               False
                   3                   1         21.80828472        -19.74691935         -2.06136537         45.97760204         1.592690381         8.842776992          88.8183583               False
                   3                   2          23.9318719        -17.62333218        -6.308539719         4.422397961         1.592690381         5.657396231         39.33156748               False
                   3                   3         -23.9318719         17.62333218         6.308539719         4.422397961        -1.592690381         5.657396231         39.33156748               False
                   3                   4        -21.80828472         19.74691935          2.06136537         45.97760204        -1.592690381         8.842776992          88.8183583               False
                   3                   5         21.80828472        -19.74691935         -2.06136537         45.97760204        -1.592690381        -8.842776992          88.8183583               False
                   3                   6          23.9318719        -17.62333218        -6.308539719         4.422397961        -1.592690381        -5.657396231         39.33156748               False
                   3                   7         -23.9318719         17.62333218         6.308539719         4.422397961         1.592690381        -5.657396231         39.33156748               False
                   3                   8        -21.80828472         19.74691935          2.06136537         45.97760204         1.592690381        -8.842776992          88.8183583               False

***** Strain Data ******
          Element No         Integral No           Strain XX           Strain YY           Strain ZZ           Strain XY           Strain XZ           Strain YZ
                   1                   1     0.0007809253415    -0.0004284961291    -0.0003524292124      0.001521421471    -0.0001039093406     7.606691673e-05
                   1                   2     0.0007116524477    -0.0004977690229    -0.0002138834249    -0.0008974214706    -0.0001039093406      0.000283885598
                   1                   3    -0.0007116524477     0.0004977690229     0.0002138834249    -0.0008974214706     0.0001039093406      0.000283885598
                   1                   4    -0.0007809253415     0.0004284961291     0.0003524292124      0.001521421471     0.0001039093406     7.606691673e-05
                   1                   5     0.0007809253415    -0.0004284961291    -0.0003524292124      0.001521421471     0.0001039093406    -7.606691673e-05
                   1                   6     0.0007116524477    -0.0004977690229    -0.0002138834249    -0.0008974214706     0.0001039093406     -0.000283885598
                   1                   7    -0.0007116524477     0.0004977690229     0.0002138834249    -0.0008974214706    -0.0001039093406     -0.000283885598
                   1                   8    -0.0007809253415     0.0004284961291     0.0003524292124      0.001521421471    -0.0001039093406    -7.606691673e-05
                   2                   1     0.0004059252451    -0.0003579988279    -4.792641719e-05      0.001075924073     6.813748926e-05     0.0003100724107
                   2                   2     0.0004513502379     -0.000312573835    -0.0001387764029    -0.0004519240729     6.813748926e-05     0.0001737974322
                   2                   3    -0.0004513502379      0.000312573835     0.0001387764029    -0.0004519240729    -6.813748926e-05     0.0001737974322
                   2                   4    -0.0004059252451     0.0003579988279     4.792641719e-05      0.001075924073    -6.813748926e-05     0.0003100724107
                   2                   5     0.0004059252451    -0.0003579988279    -4.792641719e-05      0.001075924073    -6.813748926e-05    -0.0003100724107
                   2                   6     0.0004513502379     -0.000312573835    -0.0001387764029    -0.0004519240729    -6.813748926e-05    -0.0001737974322
                   2                   7    -0.0004513502379      0.000312573835     0.0001387764029    -0.0004519240729     6.813748926e-05    -0.0001737974322
                   2                   8    -0.0004059252451     0.0003579988279     4.792641719e-05      0.001075924073     6.813748926e-05    -0.0003100724107
                   3                   1     0.0001350036673    -0.0001222428341    -1.276083324e-05     0.0005692465014     1.971902376e-05     0.0001094820009
                   3                   2     0.0001481496832    -0.0001090968183    -3.905286493e-05     5.475349856e-05     1.971902376e-05     7.004395333e-05
                   3                   3    -0.0001481496832     0.0001090968183     3.905286493e-05     5.475349856e-05    -1.971902376e-05     7.004395333e-05
                   3                   4    -0.0001350036673     0.0001222428341     1.276083324e-05     0.0005692465014    -1.971902376e-05     0.0001094820009
                   3                   5     0.0001350036673    -0.0001222428341    -1.276083324e-05     0.0005692465014    -1.971902376e-05    -0.0001094820009
                   3                   6     0.0001481496832    -0.0001090968183    -3.905286493e-05     5.475349856e-05    -1.971902376e-05    -7.004395333e-05
                   3                   7    -0.0001481496832     0.0001090968183     3.905286493e-05     5.475349856e-05     1.971902376e-05    -7.004395333e-05
                   3                   8    -0.0001350036673     0.0001222428341     1.276083324e-05     0.0005692465014     1.971902376e-05    -0.0001094820009

***** Plastic Strain Data ******
          Element No         Integral No          PStrain XX          PStrain YY          PStrain ZZ          PStrain XY          PStrain XZ          PStrain YZ
                   1                   1                   0                   0                   0                   0                   0                   0
                   1                   2                   0                   0                   0                   0                   0                   0
                   1                   3                   0                   0                   0                   0                   0                   0
                   1                   4                   0                   0                   0                   0                   0                   0
                   1                   5                   0                   0                   0                   0                   0                   0
                   1                   6                   0                   0                   0                   0                   0                   0
                   1                   7                   0                   0                   0                   0                   0                   0
                   1                   8                   0                   0                   0                   0                   0                   0
                   2                   1                   0                   0                   0                   0                   0                   0
                   2                   2                   0                   0                   0                   0                   0                   0
                   2                   3                   0                   0                   0                   0                   0                   0
                   2                   4                   0                   0                   0                   0                   0                   0
                   2                   5                   0                   0                   0                   0                   0                   0
                   2                   6                   0                   0                   0                   0                   0                   0
                   2                   7                   0                   0                   0                   0                   0                   0
                   2                   8                   0                   0                   0                   0                   0                   0
                   3                   1                   0                   0                   0                   0                   0                   0
                   3                   2                   0                   0                   0                   0                   0                   0
                   3                   3                   0                   0                   0                   0                   0                   0
                   3                   4                   0                   0                   0                   0                   0                   0
                   3                   5                   0                   0                   0                   0                   0                   0
                   3                   6                   0                   0                   0                   0                   0                   0
                   3                   7                   0                   0                   0                   0                   0                   0
                   3                   8                   0                   0                   0                   0                   0                   0

***** Reaction Force Data ******
              NodeNo           Magnitude             X Force             Y Force             Z Force----------------------------------------------------------------------------------------------------
                   1          38.9262156               -37.8                -6.3          6.83522207
                   2     6.522520113e-14     3.197442311e-14     8.881784197e-16    -5.684341886e-14
                   3     1.865040194e-13     1.598721155e-13     9.237055565e-14     2.631228568e-14
                   4     4.122584633e-13    -7.110978473e-14     3.561595463e-13     1.950661854e-13
                   5          38.9262156               -37.8                -6.3         -6.83522207
                   6     1.256230966e-13     8.526512829e-14     8.437694987e-14     3.730349363e-14
                   7     2.445356376e-13      1.10134124e-13     1.145750161e-13    -1.858513343e-13
                   8     2.122121613e-13      -5.3956839e-14     1.980637876e-13    -5.379030554e-14
                   9          38.9262156                37.8                -6.3         -6.83522207
                  10     1.512780621e-13    -4.263256415e-14      1.43884904e-13    -1.909583602e-14
                  11     3.130568292e-13    -3.375077995e-14    -2.717825964e-13     1.516564652e-13
                  12     3.955289167e-13    -1.637856517e-13    -3.366196211e-13     1.276895256e-13
                  13          38.9262156                37.8                -6.3          6.83522207
                  14     8.328656047e-14     3.197442311e-14     7.549516567e-14    -1.465494393e-14
                  15     2.653487843e-13      1.88293825e-13    -1.501021529e-13    -1.114663917e-13
                  16     2.818197753e-13     1.709743458e-14    -2.753353101e-13    -5.762404442e-14

*Increment 64

***** Displacement Data ******
              NodeNo           Magnitude      X Displacement      Y Displacement      Z Displacement
----------------------------------------------------------------------------------------------------
                   1                   0                   0                   0                   0
                   2      0.003256798024      0.002128029902      0.002444982283    -0.0003166760857
                   3      0.009055029679      0.003472187675      0.008362152241    -0.0001090189756
                   4       0.01654835814       0.00392482413       0.01607611643     -4.89229032e-05
                   5                   0                   0                   0                   0
                   6      0.003256798024      0.002128029902      0.002444982283     0.0003166760857
                   7      0.009055029679      0.003472187675      0.008362152241     0.0001090189756
                   8       0.01654835814       0.00392482413       0.01607611643      4.89229032e-05
                   9                   0                   0                   0                   0
                  10      0.003256798024     -0.002128029902      0.002444982283     0.0003166760857
                  11      0.009055029679     -0.003472187675      0.008362152241     0.0001090189756
                  12       0.01654835814      -0.00392482413       0.01607611643      4.89229032e-05
                  13                   0                   0                   0                   0
                  14      0.003256798024     -0.002128029902      0.002444982283    -0.0003166760857
                  15      0.009055029679     -0.003472187675      0.008362152241    -0.0001090189756
                  16       0.01654835814      -0.00392482413       0.01607611643     -4.89229032e-05

***** Stress Data ******
          Element No         Integral No           Stress XX           Stress YY           Stress ZZ           Stress XY           Stress XZ           Stress YZ               Mises            YieldFlg
                   1                   1         128.1518509        -70.31731349        -57.83453742         124.8345822        -8.525894616         6.241388039         290.0936727               False
                   1                   2         116.7839914        -81.68517298        -35.09881844         -73.6345822        -8.525894616         23.29317727          224.557981               False
                   1                   3        -116.7839914         81.68517298         35.09881844         -73.6345822         8.525894616         23.29317727          224.557981               False
                   1                   4        -128.1518509         70.31731349         57.83453742         124.8345822         8.525894616         6.241388039         290.0936727               False
                   1                   5         128.1518509        -70.31731349        -57.83453742         124.8345822         8.525894616        -6.241388039         290.0936727               False
                   1                   6         116.7839914        -81.68517298        -35.09881844         -73.6345822         8.525894616        -23.29317727          224.557981               False
                   1                   7        -116.7839914         81.68517298         35.09881844         -73.6345822        -8.525894616        -23.29317727          224.557981               False
                   1                   8        -128.1518509         70.31731349         57.83453742         124.8345822        -8.525894616        -6.241388039         290.0936727               False
                   2                   1         66.61337355         -58.7485256        -7.864847949         88.28094957          5.59076835         25.44183883         193.2410145               False
                   2                   2         74.06773135         -51.2941678        -22.77356355        -37.08094957          5.59076835         14.26030213         133.3509006               False
                   2                   3        -74.06773135          51.2941678         22.77356355        -37.08094957         -5.59076835         14.26030213         133.3509006               False
                   2                   4        -66.61337355          58.7485256         7.864847949         88.28094957         -5.59076835         25.44183883         193.2410145               False
                   2                   5         66.61337355         -58.7485256        -7.864847949         88.28094957         -5.59076835        -25.44183883         193.2410145               False
                   2                   6         74.06773135         -51.2941678        -22.77356355        -37.08094957         -5.59076835        -14.26030213         133.3509006               False
                   2                   7        -74.06773135          51.2941678         22.77356355        -37.08094957          5.59076835        -14.26030213         133.3509006               False
                   2                   8        -66.61337355          58.7485256         7.864847949         88.28094957          5.59076835        -25.44183883         193.2410145               False
                   3                   1         22.15444797        -20.06036252        -2.094085455         46.70740525         1.617971181         8.983138532         90.22817351               False
                   3                   2         24.31174288        -17.90306761         -6.40867527         4.492594754         1.617971181         5.747196171         39.95587807               False
                   3                   3        -24.31174288         17.90306761          6.40867527         4.492594754        -1.617971181         5.747196171         39.95587807               False
                   3                   4        -22.15444797         20.06036252         2.094085455         46.70740525        -1.617971181         8.983138532         90.22817351               False
                   3                   5         22.15444797        -20.06036252        -2.094085455         46.70740525        -1.617971181        -8.983138532         90.22817351               False
                   3                   6         24.31174288        -17.90306761         -6.40867527         4.492594754        -1.617971181        -5.747196171         39.95587807               False
                   3                   7        -24.31174288         17.90306761          6.40867527         4.492594754         1.617971181        -5.747196171         39.95587807               False
                   3                   8        -22.15444797         20.06036252         2.094085455         46.70740525         1.617971181        -8.983138532         90.22817351               False

***** Strain Data ******
          Element No         Integral No           Strain XX           Strain YY           Strain ZZ           Strain XY           Strain XZ           Strain YZ
                   1                   1     0.0007933209818     -0.000435297655    -0.0003580233269      0.001545571018    -0.0001055586952      7.72743281e-05
                   1                   2     0.0007229485183    -0.0005056701185    -0.0002172783999    -0.0009116662558    -0.0001055586952     0.0002883917186
                   1                   3    -0.0007229485183     0.0005056701185     0.0002172783999    -0.0009116662558     0.0001055586952     0.0002883917186
                   1                   4    -0.0007933209818      0.000435297655     0.0003580233269      0.001545571018     0.0001055586952      7.72743281e-05
                   1                   5     0.0007933209818     -0.000435297655    -0.0003580233269      0.001545571018     0.0001055586952     -7.72743281e-05
                   1                   6     0.0007229485183    -0.0005056701185    -0.0002172783999    -0.0009116662558     0.0001055586952    -0.0002883917186
                   1                   7    -0.0007229485183     0.0005056701185     0.0002172783999    -0.0009116662558    -0.0001055586952    -0.0002883917186
                   1                   8    -0.0007933209818      0.000435297655     0.0003580233269      0.001545571018    -0.0001055586952     -7.72743281e-05
                   2                   1     0.0004123685029    -0.0003636813489    -4.868715397e-05      0.001093002233     6.921903671e-05      0.000314994195
                   2                   2     0.0004585145274    -0.0003175353245    -0.0001409792029    -0.0004590974709     6.921903671e-05     0.0001765561216
                   2                   3    -0.0004585145274     0.0003175353245     0.0001409792029    -0.0004590974709    -6.921903671e-05     0.0001765561216
                   2                   4    -0.0004123685029     0.0003636813489     4.868715397e-05      0.001093002233    -6.921903671e-05      0.000314994195
                   2                   5     0.0004123685029    -0.0003636813489    -4.868715397e-05      0.001093002233    -6.921903671e-05     -0.000314994195
                   2                   6     0.0004585145274    -0.0003175353245    -0.0001409792029    -0.0004590974709    -6.921903671e-05    -0.0001765561216
                   2                   7    -0.0004585145274     0.0003175353245     0.0001409792029    -0.0004590974709     6.921903671e-05    -0.0001765561216
                   2                   8    -0.0004123685029     0.0003636813489     4.868715397e-05      0.001093002233     6.921903671e-05     -0.000314994195
                   3                   1     0.0001371465827    -0.0001241831965    -1.296338615e-05     0.0005782821602     2.003202414e-05     0.0001112198104
                   3                   2     0.0001505012655    -0.0001108285138    -3.967275167e-05     5.562260171e-05     2.003202414e-05     7.115576211e-05
                   3                   3    -0.0001505012655     0.0001108285138     3.967275167e-05     5.562260171e-05    -2.003202414e-05     7.115576211e-05
                   3                   4    -0.0001371465827     0.0001241831965     1.296338615e-05     0.0005782821602    -2.003202414e-05     0.0001112198104
                   3                   5     0.0001371465827    -0.0001241831965    -1.296338615e-05     0.0005782821602    -2.003202414e-05    -0.0001112198104
                   3                   6     0.0001505012655    -0.0001108285138    -3.967275167e-05     5.562260171e-05    -2.003202414e-05    -7.115576211e-05
                   3                   7    -0.0001505012655     0.0001108285138     3.967275167e-05     5.562260171e-05     2.003202414e-05    -7.115576211e-05
                   3                   8    -0.0001371465827     0.0001241831965     1.296338615e-05     0.0005782821602     2.003202414e-05    -0.0001112198104

***** Plastic Strain Data ******
          Element No         Integral No          PStrain XX          PStrain YY          PStrain ZZ          PStrain XY          PStrain XZ          PStrain YZ
                   1                   1                   0                   0                   0                   0                   0                   0
                   1                   2                   0                   0                   0                   0                   0                   0
                   1                   3                   0                   0                   0                   0                   0                   0
                   1                   4                   0                   0                   0                   0                   0                   0
                   1                   5                   0                   0                   0                   0                   0                   0
                   1                   6                   0                   0                   0                   0                   0                   0
                   1                   7                   0                   0                   0                   0                   0                   0
                   1                   8                   0                   0                   0                   0                   0                   0
                   2                   1                   0                   0                   0                   0                   0                   0
                   2                   2                   0                   0                   0                   0                   0                   0
                   2                   3                   0                   0                   0                   0                   0                   0
                   2                   4                   0                   0                   0                   0                   0                   0
                   2                   5                   0                   0                   0                   0                   0                   0
                   2                   6                   0                   0                   0                   0                   0                   0
                   2                   7                   0                   0                   0                   0                   0                   0
                   2                   8                   0                   0                   0                   0                   0                   0
                   3                   1                   0                   0                   0                   0                   0                   0
                   3                   2                   0                   0                   0                   0                   0                   0
                   3                   3                   0                   0                   0                   0                   0                   0
                   3                   4                   0                   0                   0                   0                   0                   0
                   3                   5                   0                   0                   0                   0                   0                   0
                   3                   6                   0                   0                   0                   0                   0                   0
                   3                   7                   0                   0                   0                   0                   0                   0
                   3                   8                   0                   0                   0                   0                   0                   0

***** Reaction Force Data ******
              NodeNo           Magnitude             X Force             Y Force             Z Force----------------------------------------------------------------------------------------------------
                   1         39.54409204               -38.4                -6.4         6.943717659
                   2     6.358389843e-14    -2.131628207e-14    -1.598721155e-14    -5.773159728e-14
                   3     2.094166991e-13      1.88293825e-13     8.792966355e-14    -2.586819647e-14
                   4     3.138635867e-13    -1.482147738e-14     2.611244554e-13     1.735070421e-13
                   5         39.54409204               -38.4                -6.4        -6.943717659
                   6     8.979391579e-14      4.97379915e-14     5.151434834e-14      5.41788836e-14
                   7     2.206111487e-13     1.350031198e-13     1.278976924e-13    -1.186828413e-13
                   8     9.871200132e-14     2.153832668e-14     8.881784197e-14    -3.730349363e-14
                   9         39.54409204                38.4                -6.4        -6.943717659
                  10     1.545947192e-13     -4.97379915e-14     1.421085472e-13    -3.508304758e-14
                  11     1.887039514e-13    -4.440892099e-14    -1.563194019e-13     9.592326933e-14
                  12     3.708239108e-13     -1.79661841e-13    -3.108624469e-13     9.271750034e-14
                  13         39.54409204                38.4                -6.4         6.943717659
                  14     6.947832104e-14     2.486899575e-14     6.483702464e-14    -2.220446049e-15
                  15     1.751849262e-13     1.509903313e-13    -4.440892099e-14    -7.693845561e-14
                  16     2.621487588e-13    -1.099120794e-14    -2.611244554e-13    -2.037606195e-14

*Increment 65

***** Displacement Data ******
              NodeNo           Magnitude      X Displacement      Y Displacement      Z Displacement
----------------------------------------------------------------------------------------------------
                   1                   0                   0                   0                   0
                   2      0.003307685493      0.002161280369      0.002483185131    -0.0003216241496
                   3      0.009196514517      0.003526440607      0.008492810869    -0.0001107223971
                   4       0.01680692624      0.003986149507       0.01632730575    -4.968732356e-05
                   5                   0                   0                   0                   0
                   6      0.003307685493      0.002161280369      0.002483185131     0.0003216241496
                   7      0.009196514517      0.003526440607      0.008492810869     0.0001107223971
                   8       0.01680692624      0.003986149507       0.01632730575     4.968732356e-05
                   9                   0                   0                   0                   0
                  10      0.003307685493     -0.002161280369      0.002483185131     0.0003216241496
                  11      0.009196514517     -0.003526440607      0.008492810869     0.0001107223971
                  12       0.01680692624     -0.003986149507       0.01632730575     4.968732356e-05
                  13                   0                   0                   0                   0
                  14      0.003307685493     -0.002161280369      0.002483185131    -0.0003216241496
                  15      0.009196514517     -0.003526440607      0.008492810869    -0.0001107223971
                  16       0.01680692624     -0.003986149507       0.01632730575    -4.968732356e-05

***** Stress Data ******
          Element No         Integral No           Stress XX           Stress YY           Stress ZZ           Stress XY           Stress XZ           Stress YZ               Mises            YieldFlg
                   1                   1         130.1542236        -71.41602152        -58.73820206         126.7851225         -8.65911172         6.338909727         294.6263863               False
                   1                   2         118.6087413        -82.96150381        -35.64723748        -74.78512255         -8.65911172         23.65713317         228.0666995               False
                   1                   3        -118.6087413         82.96150381         35.64723748        -74.78512255          8.65911172         23.65713317         228.0666995               False
                   1                   4        -130.1542236         71.41602152         58.73820206         126.7851225          8.65911172         6.338909727         294.6263863               False
                   1                   5         130.1542236        -71.41602152        -58.73820206         126.7851225          8.65911172        -6.338909727         294.6263863               False
                   1                   6         118.6087413        -82.96150381        -35.64723748        -74.78512255          8.65911172        -23.65713317         228.0666995               False
                   1                   7        -118.6087413         82.96150381         35.64723748        -74.78512255         -8.65911172        -23.65713317         228.0666995               False
                   1                   8        -130.1542236         71.41602152         58.73820206         126.7851225         -8.65911172        -6.338909727         294.6263863               False
                   2                   1         67.65420751        -59.66647131        -7.987736198         89.66033941         5.678124105         25.83936756         196.2604053               False
                   2                   2         75.22503965        -52.09563917        -23.12940048        -37.66033941         5.678124105         14.48311935         135.4345084               False
                   2                   3        -75.22503965         52.09563917         23.12940048        -37.66033941        -5.678124105         14.48311935         135.4345084               False
                   2                   4        -67.65420751         59.66647131         7.987736198         89.66033941        -5.678124105         25.83936756         196.2604053               False
                   2                   5         67.65420751        -59.66647131        -7.987736198         89.66033941        -5.678124105        -25.83936756         196.2604053               False
                   2                   6         75.22503965        -52.09563917        -23.12940048        -37.66033941        -5.678124105        -14.48311935         135.4345084               False
                   2                   7        -75.22503965         52.09563917         23.12940048        -37.66033941         5.678124105        -14.48311935         135.4345084               False
                   2                   8        -67.65420751         59.66647131         7.987736198         89.66033941         5.678124105        -25.83936756         196.2604053               False
                   3                   1         22.50061122        -20.37380568         -2.12680554         47.43720845          1.64325198         9.123500071         91.63798872               False
                   3                   2         24.69161386        -18.18280304        -6.508810821         4.562791547          1.64325198         5.836996111         40.58018867               False
                   3                   3        -24.69161386         18.18280304         6.508810821         4.562791547         -1.64325198         5.836996111         40.58018867               False
                   3                   4        -22.50061122         20.37380568          2.12680554         47.43720845         -1.64325198         9.123500071         91.63798872               False
                   3                   5         22.50061122        -20.37380568         -2.12680554         47.43720845         -1.64325198        -9.123500071         91.63798872               False
                   3                   6         24.69161386        -18.18280304        -6.508810821         4.562791547         -1.64325198        -5.836996111         40.58018867               False
                   3                   7        -24.69161386         18.18280304         6.508810821         4.562791547          1.64325198        -5.836996111         40.58018867               False
                   3                   8        -22.50061122         20.37380568          2.12680554         47.43720845          1.64325198        -9.123500071         91.63798872               False

***** Strain Data ******
          Element No         Integral No           Strain XX           Strain YY           Strain ZZ           Strain XY           Strain XZ           Strain YZ
                   1                   1     0.0008057166222    -0.0004420991808    -0.0003636174413      0.001569720565    -0.0001072080499     7.848173948e-05
                   1                   2     0.0007342445889    -0.0005135712141    -0.0002206733749    -0.0009259110411    -0.0001072080499     0.0002928978392
                   1                   3    -0.0007342445889     0.0005135712141     0.0002206733749    -0.0009259110411     0.0001072080499     0.0002928978392
                   1                   4    -0.0008057166222     0.0004420991808     0.0003636174413      0.001569720565     0.0001072080499     7.848173948e-05
                   1                   5     0.0008057166222    -0.0004420991808    -0.0003636174413      0.001569720565     0.0001072080499    -7.848173948e-05
                   1                   6     0.0007342445889    -0.0005135712141    -0.0002206733749    -0.0009259110411     0.0001072080499    -0.0002928978392
                   1                   7    -0.0007342445889     0.0005135712141     0.0002206733749    -0.0009259110411    -0.0001072080499    -0.0002928978392
                   1                   8    -0.0008057166222     0.0004420991808     0.0003636174413      0.001569720565    -0.0001072080499    -7.848173948e-05
                   2                   1     0.0004188117608      -0.00036936387    -4.944789075e-05      0.001110080393     7.030058416e-05     0.0003199159793
                   2                   2     0.0004656788169    -0.0003224968139     -0.000143182003    -0.0004662708689     7.030058416e-05      0.000179314811
                   2                   3    -0.0004656788169     0.0003224968139      0.000143182003    -0.0004662708689    -7.030058416e-05      0.000179314811
                   2                   4    -0.0004188117608       0.00036936387     4.944789075e-05      0.001110080393    -7.030058416e-05     0.0003199159793
                   2                   5     0.0004188117608      -0.00036936387    -4.944789075e-05      0.001110080393    -7.030058416e-05    -0.0003199159793
                   2                   6     0.0004656788169    -0.0003224968139     -0.000143182003    -0.0004662708689    -7.030058416e-05     -0.000179314811
                   2                   7    -0.0004656788169     0.0003224968139      0.000143182003    -0.0004662708689     7.030058416e-05     -0.000179314811
                   2                   8    -0.0004188117608       0.00036936387     4.944789075e-05      0.001110080393     7.030058416e-05    -0.0003199159793
                   3                   1      0.000139289498     -0.000126123559    -1.316593906e-05     0.0005873178189     2.034502452e-05     0.0001129576199
                   3                   2     0.0001528528477    -0.0001125602093    -4.029263842e-05     5.649170486e-05     2.034502452e-05      7.22675709e-05
                   3                   3    -0.0001528528477     0.0001125602093     4.029263842e-05     5.649170486e-05    -2.034502452e-05      7.22675709e-05
                   3                   4     -0.000139289498      0.000126123559     1.316593906e-05     0.0005873178189    -2.034502452e-05     0.0001129576199
                   3                   5      0.000139289498     -0.000126123559    -1.316593906e-05     0.0005873178189    -2.034502452e-05    -0.0001129576199
                   3                   6     0.0001528528477    -0.0001125602093    -4.029263842e-05     5.649170486e-05    -2.034502452e-05     -7.22675709e-05
                   3                   7    -0.0001528528477     0.0001125602093     4.029263842e-05     5.649170486e-05     2.034502452e-05     -7.22675709e-05
                   3                   8     -0.000139289498      0.000126123559     1.316593906e-05     0.0005873178189     2.034502452e-05    -0.0001129576199

***** Plastic Strain Data ******
          Element No         Integral No          PStrain XX          PStrain YY          PStrain ZZ          PStrain XY          PStrain XZ          PStrain YZ
                   1                   1                   0                   0                   0                   0                   0                   0
                   1                   2                   0                   0                   0                   0                   0                   0
                   1                   3                   0                   0                   0                   0                   0                   0
                   1                   4                   0                   0                   0                   0                   0                   0
                   1                   5                   0                   0                   0                   0                   0                   0
                   1                   6                   0                   0                   0                   0                   0                   0
                   1                   7                   0                   0                   0                   0                   0                   0
                   1                   8                   0                   0                   0                   0                   0                   0
                   2                   1                   0                   0                   0                   0                   0                   0
                   2                   2                   0                   0                   0                   0                   0                   0
                   2                   3                   0                   0                   0                   0                   0                   0
                   2                   4                   0                   0                   0                   0                   0                   0
                   2                   5                   0                   0                   0                   0                   0                   0
                   2                   6                   0                   0                   0                   0                   0                   0
                   2                   7                   0                   0                   0                   0                   0                   0
                   2                   8                   0                   0                   0                   0                   0                   0
                   3                   1                   0                   0                   0                   0                   0                   0
                   3                   2                   0                   0                   0                   0                   0                   0
                   3                   3                   0                   0                   0                   0                   0                   0
                   3                   4                   0                   0                   0                   0                   0                   0
                   3                   5                   0                   0                   0                   0                   0                   0
                   3                   6                   0                   0                   0                   0                   0                   0
                   3                   7                   0                   0                   0                   0                   0                   0
                   3                   8                   0                   0                   0                   0                   0                   0

***** Reaction Force Data ******
              NodeNo           Magnitude             X Force             Y Force             Z Force----------------------------------------------------------------------------------------------------
                   1         40.16196847                 -39                -6.5         7.052213247
                   2     4.737622284e-14    -2.486899575e-14    -7.993605777e-15    -3.952393968e-14
                   3     2.041369282e-13     1.421085472e-13     1.465494393e-13     5.551115123e-16
                   4      2.84537648e-13      1.33226763e-14     2.344791028e-13     1.606353939e-13
                   5         40.16196847                 -39                -6.5        -7.052213247
                   6     1.122667711e-13     6.394884622e-14     8.792966355e-14     2.797762022e-14
                   7     2.075993562e-13     1.065814104e-13     1.154631946e-13    -1.356692536e-13
                   8     1.173443371e-13     9.547918012e-15      1.10134124e-13    -3.935740622e-14
                   9         40.16196847                  39                -6.5        -7.052213247
                  10     1.158383529e-13    -1.065814104e-14     1.145750161e-13     -1.33226763e-14
                  11     2.212870286e-13    -9.769962617e-14    -1.705302566e-13     1.016964291e-13
                  12     3.688357959e-13     -1.68864922e-13     -3.15303339e-13     9.004602619e-14
                  13         40.16196847                  39                -6.5         7.052213247
                  14     9.715307885e-14     6.394884622e-14     6.661338148e-14    -3.019806627e-14
                  15     1.744366362e-13     1.314504061e-13    -9.237055565e-14    -6.794564911e-14
                  16     2.307345387e-13     1.720845688e-14    -2.300382107e-13    -4.971717482e-15

*Increment 66

***** Displacement Data ******
              NodeNo           Magnitude      X Displacement      Y Displacement      Z Displacement
----------------------------------------------------------------------------------------------------
                   1                   0                   0                   0                   0
                   2      0.003358572963      0.002194530836      0.002521387979    -0.0003265722134
                   3      0.009337999356       0.00358069354      0.008623469498    -0.0001124258186
                   4       0.01706549434      0.004047474884       0.01657849506    -5.045174393e-05
                   5                   0                   0                   0                   0
                   6      0.003358572963      0.002194530836      0.002521387979     0.0003265722134
                   7      0.009337999356       0.00358069354      0.008623469498     0.0001124258186
                   8       0.01706549434      0.004047474884       0.01657849506     5.045174393e-05
                   9                   0                   0                   0                   0
                  10      0.003358572963     -0.002194530836      0.002521387979     0.0003265722134
                  11      0.009337999356      -0.00358069354      0.008623469498     0.0001124258186
                  12       0.01706549434     -0.004047474884       0.01657849506     5.045174393e-05
                  13                   0                   0                   0                   0
                  14      0.003358572963     -0.002194530836      0.002521387979    -0.0003265722134
                  15      0.009337999356      -0.00358069354      0.008623469498    -0.0001124258186
                  16       0.01706549434     -0.004047474884       0.01657849506    -5.045174393e-05

***** Stress Data ******
          Element No         Integral No           Stress XX           Stress YY           Stress ZZ           Stress XY           Stress XZ           Stress YZ               Mises            YieldFlg
                   1                   1         132.1565963        -72.51472954        -59.64186671         128.7356629        -8.792328823         6.436431415            299.1591               False
                   1                   2         120.4334912        -84.23783464        -36.19565652         -75.9356629        -8.792328823         24.02108906         231.5754179               False
                   1                   3        -120.4334912         84.23783464         36.19565652         -75.9356629         8.792328823         24.02108906         231.5754179               False
                   1                   4        -132.1565963         72.51472954         59.64186671         128.7356629         8.792328823         6.436431415            299.1591               False
                   1                   5         132.1565963        -72.51472954        -59.64186671         128.7356629         8.792328823        -6.436431415            299.1591               False
                   1                   6         120.4334912        -84.23783464        -36.19565652         -75.9356629         8.792328823        -24.02108906         231.5754179               False
                   1                   7        -120.4334912         84.23783464         36.19565652         -75.9356629        -8.792328823        -24.02108906         231.5754179               False
                   1                   8        -132.1565963         72.51472954         59.64186671         128.7356629        -8.792328823        -6.436431415            299.1591               False
                   2                   1         68.69504147        -60.58441702        -8.110624447         91.03972925          5.76547986         26.23689629         199.2797962               False
                   2                   2         76.38234795        -52.89711054        -23.48523741        -38.23972925          5.76547986         14.70593657         137.5181163               False
                   2                   3        -76.38234795         52.89711054         23.48523741        -38.23972925         -5.76547986         14.70593657         137.5181163               False
                   2                   4        -68.69504147         60.58441702         8.110624447         91.03972925         -5.76547986         26.23689629         199.2797962               False
                   2                   5         68.69504147        -60.58441702        -8.110624447         91.03972925         -5.76547986        -26.23689629         199.2797962               False
                   2                   6         76.38234795        -52.89711054        -23.48523741        -38.23972925         -5.76547986        -14.70593657         137.5181163               False
                   2                   7        -76.38234795         52.89711054         23.48523741        -38.23972925          5.76547986        -14.70593657         137.5181163               False
                   2                   8        -68.69504147         60.58441702         8.110624447         91.03972925          5.76547986        -26.23689629         199.2797962               False
                   3                   1         22.84677447        -20.68724885        -2.159525626         48.16701166          1.66853278         9.263861611         93.04780393               False
                   3                   2         25.07148485        -18.46253847        -6.608946372          4.63298834          1.66853278         5.926796051         41.20449926               False
                   3                   3        -25.07148485         18.46253847         6.608946372          4.63298834         -1.66853278         5.926796051         41.20449926               False
                   3                   4        -22.84677447         20.68724885         2.159525626         48.16701166         -1.66853278         9.263861611         93.04780393               False
                   3                   5         22.84677447        -20.68724885        -2.159525626         48.16701166         -1.66853278        -9.263861611         93.04780393               False
                   3                   6         25.07148485        -18.46253847        -6.608946372          4.63298834         -1.66853278        -5.926796051         41.20449926               False
                   3                   7        -25.07148485         18.46253847         6.608946372          4.63298834          1.66853278        -5.926796051         41.20449926               False
                   3                   8        -22.84677447         20.68724885         2.159525626         48.16701166          1.66853278        -9.263861611         93.04780393               False

***** Strain Data ******
          Element No         Integral No           Strain XX           Strain YY           Strain ZZ           Strain XY           Strain XZ           Strain YZ
                   1                   1     0.0008181122625    -0.0004489007067    -0.0003692115558      0.001593870112    -0.0001088574045     7.968915086e-05
                   1                   2     0.0007455406595    -0.0005214723097    -0.0002240683499    -0.0009401558263    -0.0001088574045     0.0002974039598
                   1                   3    -0.0007455406595     0.0005214723097     0.0002240683499    -0.0009401558263     0.0001088574045     0.0002974039598
                   1                   4    -0.0008181122625     0.0004489007067     0.0003692115558      0.001593870112     0.0001088574045     7.968915086e-05
                   1                   5     0.0008181122625    -0.0004489007067    -0.0003692115558      0.001593870112     0.0001088574045    -7.968915086e-05
                   1                   6     0.0007455406595    -0.0005214723097    -0.0002240683499    -0.0009401558263     0.0001088574045    -0.0002974039598
                   1                   7    -0.0007455406595     0.0005214723097     0.0002240683499    -0.0009401558263    -0.0001088574045    -0.0002974039598
                   1                   8    -0.0008181122625     0.0004489007067     0.0003692115558      0.001593870112    -0.0001088574045    -7.968915086e-05
                   2                   1     0.0004252550186    -0.0003750463911    -5.020862753e-05      0.001127158553     7.138213161e-05     0.0003248377636
                   2                   2     0.0004728431064    -0.0003274583034     -0.000145384803    -0.0004734442669     7.138213161e-05     0.0001820735004
                   2                   3    -0.0004728431064     0.0003274583034      0.000145384803    -0.0004734442669    -7.138213161e-05     0.0001820735004
                   2                   4    -0.0004252550186     0.0003750463911     5.020862753e-05      0.001127158553    -7.138213161e-05     0.0003248377636
                   2                   5     0.0004252550186    -0.0003750463911    -5.020862753e-05      0.001127158553    -7.138213161e-05    -0.0003248377636
                   2                   6     0.0004728431064    -0.0003274583034     -0.000145384803    -0.0004734442669    -7.138213161e-05    -0.0001820735004
                   2                   7    -0.0004728431064     0.0003274583034      0.000145384803    -0.0004734442669     7.138213161e-05    -0.0001820735004
                   2                   8    -0.0004252550186     0.0003750463911     5.020862753e-05      0.001127158553     7.138213161e-05    -0.0003248377636
                   3                   1     0.0001414324134    -0.0001280639214    -1.336849197e-05     0.0005963534777     2.065802489e-05     0.0001146954295
                   3                   2       0.00015520443    -0.0001142919048    -4.091252516e-05     5.736080802e-05     2.065802489e-05     7.337937968e-05
                   3                   3      -0.00015520443     0.0001142919048     4.091252516e-05     5.736080802e-05    -2.065802489e-05     7.337937968e-05
                   3                   4    -0.0001414324134     0.0001280639214     1.336849197e-05     0.0005963534777    -2.065802489e-05     0.0001146954295
                   3                   5     0.0001414324134    -0.0001280639214    -1.336849197e-05     0.0005963534777    -2.065802489e-05    -0.0001146954295
                   3                   6       0.00015520443    -0.0001142919048    -4.091252516e-05     5.736080802e-05    -2.065802489e-05    -7.337937968e-05
                   3                   7      -0.00015520443     0.0001142919048     4.091252516e-05     5.736080802e-05     2.065802489e-05    -7.337937968e-05
                   3                   8    -0.0001414324134     0.0001280639214     1.336849197e-05     0.0005963534777     2.065802489e-05    -0.0001146954295

***** Plastic Strain Data ******
          Element No         Integral No          PStrain XX          PStrain YY          PStrain ZZ          PStrain XY          PStrain XZ          PStrain YZ
                   1                   1                   0                   0                   0                   0                   0                   0
                   1                   2                   0                   0                   0                   0                   0                   0
                   1                   3                   0                   0                   0                   0                   0                   0
                   1                   4                   0                   0                   0                   0                   0                   0
                   1                   5                   0                   0                   0                   0                   0                   0
                   1                   6                   0                   0                   0                   0                   0                   0
                   1                   7                   0                   0                   0                   0                   0                   0
                   1                   8                   0                   0                   0                   0                   0                   0
                   2                   1                   0                   0                   0                   0                   0                   0
                   2                   2                   0                   0                   0                   0                   0                   0
                   2                   3                   0                   0                   0                   0                   0                   0
                   2                   4                   0                   0                   0                   0                   0                   0
                   2                   5                   0                   0                   0                   0                   0                   0
                   2                   6                   0                   0                   0                   0                   0                   0
                   2                   7                   0                   0                   0                   0                   0                   0
                   2                   8                   0                   0                   0                   0                   0                   0
                   3                   1                   0                   0                   0                   0                   0                   0
                   3                   2                   0                   0                   0                   0                   0                   0
                   3                   3                   0                   0                   0                   0                   0                   0
                   3                   4                   0                   0                   0                   0                   0                   0
                   3                   5                   0                   0                   0                   0                   0                   0
                   3                   6                   0                   0                   0                   0                   0                   0
                   3                   7                   0                   0                   0                   0                   0                   0
                   3                   8                   0                   0                   0                   0                   0                   0

***** Reaction Force Data ******
              NodeNo           Magnitude             X Force             Y Force             Z Force----------------------------------------------------------------------------------------------------
                   1         40.77984491               -39.6                -6.6         7.160708835
                   2     5.785614951e-14    -2.131628207e-14    -1.687538997e-14    -5.107025913e-14
                   3     2.017165249e-13     1.598721155e-13     1.110223025e-13    -5.295763827e-14
                   4     2.124051927e-13     4.474198789e-14     1.589839371e-13     1.335598299e-13
                   5         40.77984491               -39.6                -6.6        -7.160708835
                   6     1.026297754e-13     5.684341886e-14     7.993605777e-14     3.019806627e-14
                   7     2.269304824e-13     1.065814104e-13     1.678657213e-13    -1.093569679e-13
                   8     7.728797073e-14     7.305267502e-14     2.486899575e-14    -4.274358645e-15
                   9         40.77984491                39.6                -6.6        -7.160708835
                  10     1.044214185e-13    -1.421085472e-14     1.030286967e-13    -9.325873407e-15
                  11     1.582343199e-13    -9.237055565e-14    -9.858780459e-14     8.237854843e-14
                  12     3.504676786e-13    -1.968425423e-13    -2.859934511e-13     4.783673457e-14
                  13         40.77984491                39.6                -6.6         7.160708835
                  14      8.90717202e-14     7.105427358e-14      4.52970994e-14    -2.886579864e-14
                  15     1.049879514e-13     1.030286967e-13     3.552713679e-15    -1.987299214e-14
                  16     2.390980867e-13    -7.882583475e-15    -2.371436381e-13     2.947295186e-14

*Increment 67

***** Displacement Data ******
              NodeNo           Magnitude      X Displacement      Y Displacement      Z Displacement
----------------------------------------------------------------------------------------------------
                   1                   0                   0                   0                   0
                   2      0.003409460432      0.002227781304      0.002559590828    -0.0003315202773
                   3      0.009479484195      0.003634946472      0.008754128127    -0.0001141292401
                   4       0.01732406243      0.004108800261       0.01682968438    -5.121616429e-05
                   5                   0                   0                   0                   0
                   6      0.003409460432      0.002227781304      0.002559590828     0.0003315202773
                   7      0.009479484195      0.003634946472      0.008754128127     0.0001141292401
                   8       0.01732406243      0.004108800261       0.01682968438     5.121616429e-05
                   9                   0                   0                   0                   0
                  10      0.003409460432     -0.002227781304      0.002559590828     0.0003315202773
                  11      0.009479484195     -0.003634946472      0.008754128127     0.0001141292401
                  12       0.01732406243     -0.004108800261       0.01682968438     5.121616429e-05
                  13                   0                   0                   0                   0
                  14      0.003409460432     -0.002227781304      0.002559590828    -0.0003315202773
                  15      0.009479484195     -0.003634946472      0.008754128127    -0.0001141292401
                  16       0.01732406243     -0.004108800261       0.01682968438    -5.121616429e-05

***** Stress Data ******
          Element No         Integral No           Stress XX           Stress YY           Stress ZZ           Stress XY           Stress XZ           Stress YZ               Mises            YieldFlg
                   1                   1         134.1589689        -73.61343756        -60.54553136         130.6862032        -8.925545926         6.533953103         303.6918136               False
                   1                   2          122.258241        -85.51416547        -36.74407555        -77.08620324        -8.925545926         24.38504496         235.0841364               False
                   1                   3         -122.258241         85.51416547         36.74407555        -77.08620324         8.925545926         24.38504496         235.0841364               False
                   1                   4        -134.1589689         73.61343756         60.54553136         130.6862032         8.925545926         6.533953103         303.6918136               False
                   1                   5         134.1589689        -73.61343756        -60.54553136         130.6862032         8.925545926        -6.533953103         303.6918136               False
                   1                   6          122.258241        -85.51416547        -36.74407555        -77.08620324         8.925545926        -24.38504496         235.0841364               False
                   1                   7         -122.258241         85.51416547         36.74407555        -77.08620324        -8.925545926        -24.38504496         235.0841364               False
                   1                   8        -134.1589689         73.61343756         60.54553136         130.6862032        -8.925545926        -6.533953103         303.6918136               False
                   2                   1         69.73587543        -61.50236274        -8.233512696         92.41911908         5.852835616         26.63442502          202.299187               False
                   2                   2         77.53965625        -53.69858192        -23.84107434        -38.81911908         5.852835616         14.92875379         139.6017241               False
                   2                   3        -77.53965625         53.69858192         23.84107434        -38.81911908        -5.852835616         14.92875379         139.6017241               False
                   2                   4        -69.73587543         61.50236274         8.233512696         92.41911908        -5.852835616         26.63442502          202.299187               False
                   2                   5         69.73587543        -61.50236274        -8.233512696         92.41911908        -5.852835616        -26.63442502          202.299187               False
                   2                   6         77.53965625        -53.69858192        -23.84107434        -38.81911908        -5.852835616        -14.92875379         139.6017241               False
                   2                   7        -77.53965625         53.69858192         23.84107434        -38.81911908         5.852835616        -14.92875379         139.6017241               False
                   2                   8        -69.73587543         61.50236274         8.233512696         92.41911908         5.852835616        -26.63442502          202.299187               False
                   3                   1         23.19293772        -21.00069201        -2.192245711         48.89681487          1.69381358          9.40422315         94.45761915               False
                   3                   2         25.45135583        -18.74227391        -6.709081923         4.703185133          1.69381358         6.016595991         41.82880985               False
                   3                   3        -25.45135583         18.74227391         6.709081923         4.703185133         -1.69381358         6.016595991         41.82880985               False
                   3                   4        -23.19293772         21.00069201         2.192245711         48.89681487         -1.69381358          9.40422315         94.45761915               False
                   3                   5         23.19293772        -21.00069201        -2.192245711         48.89681487         -1.69381358         -9.40422315         94.45761915               False
                   3                   6         25.45135583        -18.74227391        -6.709081923         4.703185133         -1.69381358        -6.016595991         41.82880985               False
                   3                   7        -25.45135583         18.74227391         6.709081923         4.703185133          1.69381358        -6.016595991         41.82880985               False
                   3                   8        -23.19293772         21.00069201         2.192245711         48.89681487          1.69381358         -9.40422315         94.45761915               False

***** Strain Data ******
          Element No         Integral No           Strain XX           Strain YY           Strain ZZ           Strain XY           Strain XZ           Strain YZ
                   1                   1     0.0008305079029    -0.0004557022325    -0.0003748056703      0.001618019659    -0.0001105067591     8.089656223e-05
                   1                   2     0.0007568367301    -0.0005293734053    -0.0002274633249    -0.0009544006116    -0.0001105067591     0.0003019100804
                   1                   3    -0.0007568367301     0.0005293734053     0.0002274633249    -0.0009544006116     0.0001105067591     0.0003019100804
                   1                   4    -0.0008305079029     0.0004557022325     0.0003748056703      0.001618019659     0.0001105067591     8.089656223e-05
                   1                   5     0.0008305079029    -0.0004557022325    -0.0003748056703      0.001618019659     0.0001105067591    -8.089656223e-05
                   1                   6     0.0007568367301    -0.0005293734053    -0.0002274633249    -0.0009544006116     0.0001105067591    -0.0003019100804
                   1                   7    -0.0007568367301     0.0005293734053     0.0002274633249    -0.0009544006116    -0.0001105067591    -0.0003019100804
                   1                   8    -0.0008305079029     0.0004557022325     0.0003748056703      0.001618019659    -0.0001105067591    -8.089656223e-05
                   2                   1     0.0004316982765    -0.0003807289122    -5.096936431e-05      0.001144236712     7.246367905e-05     0.0003297595479
                   2                   2     0.0004800073959    -0.0003324197928     -0.000147587603    -0.0004806176649     7.246367905e-05     0.0001848321898
                   2                   3    -0.0004800073959     0.0003324197928      0.000147587603    -0.0004806176649    -7.246367905e-05     0.0001848321898
                   2                   4    -0.0004316982765     0.0003807289122     5.096936431e-05      0.001144236712    -7.246367905e-05     0.0003297595479
                   2                   5     0.0004316982765    -0.0003807289122    -5.096936431e-05      0.001144236712    -7.246367905e-05    -0.0003297595479
                   2                   6     0.0004800073959    -0.0003324197928     -0.000147587603    -0.0004806176649    -7.246367905e-05    -0.0001848321898
                   2                   7    -0.0004800073959     0.0003324197928      0.000147587603    -0.0004806176649     7.246367905e-05    -0.0001848321898
                   2                   8    -0.0004316982765     0.0003807289122     5.096936431e-05      0.001144236712     7.246367905e-05    -0.0003297595479
                   3                   1     0.0001435753288    -0.0001300042839    -1.357104488e-05     0.0006053891365     2.097102527e-05      0.000116433239
                   3                   2     0.0001575560123    -0.0001160236004    -4.153241191e-05     5.822991117e-05     2.097102527e-05     7.449118846e-05
                   3                   3    -0.0001575560123     0.0001160236004     4.153241191e-05     5.822991117e-05    -2.097102527e-05     7.449118846e-05
                   3                   4    -0.0001435753288     0.0001300042839     1.357104488e-05     0.0006053891365    -2.097102527e-05      0.000116433239
                   3                   5     0.0001435753288    -0.0001300042839    -1.357104488e-05     0.0006053891365    -2.097102527e-05     -0.000116433239
                   3                   6     0.0001575560123    -0.0001160236004    -4.153241191e-05     5.822991117e-05    -2.097102527e-05    -7.449118846e-05
                   3                   7    -0.0001575560123     0.0001160236004     4.153241191e-05     5.822991117e-05     2.097102527e-05    -7.449118846e-05
                   3                   8    -0.0001435753288     0.0001300042839     1.357104488e-05     0.0006053891365     2.097102527e-05     -0.000116433239

***** Plastic Strain Data ******
          Element No         Integral No          PStrain XX          PStrain YY          PStrain ZZ          PStrain XY          PStrain XZ          PStrain YZ
                   1                   1                   0                   0                   0                   0                   0                   0
                   1                   2                   0                   0                   0                   0                   0                   0
                   1                   3                   0                   0                   0                   0                   0                   0
                   1                   4                   0                   0                   0                   0                   0                   0
                   1                   5                   0                   0                   0                   0                   0                   0
                   1                   6                   0                   0                   0                   0                   0                   0
                   1                   7                   0                   0                   0                   0                   0                   0
                   1                   8                   0                   0                   0                   0                   0                   0
                   2                   1                   0                   0                   0                   0                   0                   0
                   2                   2                   0                   0                   0                   0                   0                   0
                   2                   3                   0                   0                   0                   0                   0                   0
                   2                   4                   0                   0                   0                   0                   0                   0
                   2                   5                   0                   0                   0                   0                   0                   0
                   2                   6                   0                   0                   0                   0                   0                   0
                   2                   7                   0                   0                   0                   0                   0                   0
                   2                   8                   0                   0                   0                   0                   0                   0
                   3                   1                   0                   0                   0                   0                   0                   0
                   3                   2                   0                   0                   0                   0                   0                   0
                   3                   3                   0                   0                   0                   0                   0                   0
                   3                   4                   0                   0                   0                   0                   0                   0
                   3                   5                   0                   0                   0                   0                   0                   0
                   3                   6                   0                   0                   0                   0                   0                   0
                   3                   7                   0                   0                   0                   0                   0                   0
                   3                   8                   0                   0                   0                   0                   0                   0

***** Reaction Force Data ******
              NodeNo           Magnitude             X Force             Y Force             Z Force----------------------------------------------------------------------------------------------------
                   1         41.39772135               -40.2                -6.7         7.269204424
                   2     6.141289757e-14    -2.842170943e-14    -2.575717417e-14    -4.796163466e-14
                   3     2.199260739e-13      1.43884904e-13     1.652011861e-13     1.931788063e-14
                   4     3.431163342e-13    -1.093569679e-14     2.939870569e-13     1.765809721e-13
                   5         41.39772135               -40.2                -6.7        -7.269204424
                   6     9.881558726e-14     6.039613254e-14     7.549516567e-14     2.042810365e-14
                   7      2.99802176e-13      1.33226763e-13      1.88293825e-13    -1.915134717e-13
                   8     1.884681331e-13    -4.751754545e-14     1.652011861e-13    -7.727152251e-14
                   9         41.39772135                40.2                -6.7        -7.269204424
                  10     1.137423353e-13     3.552713679e-15     1.136868377e-13                   0
                  11     2.977639057e-13    -4.440892099e-14    -2.451372438e-13     1.630917623e-13
                  12     4.357159769e-13    -1.874334021e-13     -3.70370401e-13     1.324496068e-13
                  13         41.39772135                40.2                -6.7         7.269204424
                  14     1.194170666e-13     9.237055565e-14     6.838973832e-14    -3.241851232e-14
                  15     2.165909398e-13     1.865174681e-13    -7.993605777e-14    -7.571721028e-14
                  16     2.784182809e-13     -3.16413562e-14    -2.744471317e-13    -3.455916109e-14

*Increment 68

***** Displacement Data ******
              NodeNo           Magnitude      X Displacement      Y Displacement      Z Displacement
----------------------------------------------------------------------------------------------------
                   1                   0                   0                   0                   0
                   2      0.003460347901      0.002261031771      0.002597793676    -0.0003364683411
                   3      0.009620969034      0.003689199404      0.008884786756    -0.0001158326616
                   4       0.01758263053      0.004170125638        0.0170808737    -5.198058465e-05
                   5                   0                   0                   0                   0
                   6      0.003460347901      0.002261031771      0.002597793676     0.0003364683411
                   7      0.009620969034      0.003689199404      0.008884786756     0.0001158326616
                   8       0.01758263053      0.004170125638        0.0170808737     5.198058465e-05
                   9                   0                   0                   0                   0
                  10      0.003460347901     -0.002261031771      0.002597793676     0.0003364683411
                  11      0.009620969034     -0.003689199404      0.008884786756     0.0001158326616
                  12       0.01758263053     -0.004170125638        0.0170808737     5.198058465e-05
                  13                   0                   0                   0                   0
                  14      0.003460347901     -0.002261031771      0.002597793676    -0.0003364683411
                  15      0.009620969034     -0.003689199404      0.008884786756    -0.0001158326616
                  16       0.01758263053     -0.004170125638        0.0170808737    -5.198058465e-05

***** Stress Data ******
          Element No         Integral No           Stress XX           Stress YY           Stress ZZ           Stress XY           Stress XZ           Stress YZ               Mises            YieldFlg
                   1                   1         136.1613416        -74.71214559          -61.449196         132.6367436         -9.05876303         6.631474792         308.2245272               False
                   1                   2         124.0829909        -86.79049629        -37.29249459        -78.23674359         -9.05876303         24.74900085         238.5928548               False
                   1                   3        -124.0829909         86.79049629         37.29249459        -78.23674359          9.05876303         24.74900085         238.5928548               False
                   1                   4        -136.1613416         74.71214559           61.449196         132.6367436          9.05876303         6.631474792         308.2245272               False
                   1                   5         136.1613416        -74.71214559          -61.449196         132.6367436          9.05876303        -6.631474792         308.2245272               False
                   1                   6         124.0829909        -86.79049629        -37.29249459        -78.23674359          9.05876303        -24.74900085         238.5928548               False
                   1                   7        -124.0829909         86.79049629         37.29249459        -78.23674359         -9.05876303        -24.74900085         238.5928548               False
                   1                   8        -136.1613416         74.71214559           61.449196         132.6367436         -9.05876303        -6.631474792         308.2245272               False
                   2                   1         70.77670939        -62.42030845        -8.356400945         93.79850892         5.940191371         27.03195375         205.3185779               False
                   2                   2         78.69696456        -54.50005329        -24.19691127        -39.39850892         5.940191371         15.15157101         141.6853319               False
                   2                   3        -78.69696456         54.50005329         24.19691127        -39.39850892        -5.940191371         15.15157101         141.6853319               False
                   2                   4        -70.77670939         62.42030845         8.356400945         93.79850892        -5.940191371         27.03195375         205.3185779               False
                   2                   5         70.77670939        -62.42030845        -8.356400945         93.79850892        -5.940191371        -27.03195375         205.3185779               False
                   2                   6         78.69696456        -54.50005329        -24.19691127        -39.39850892        -5.940191371        -15.15157101         141.6853319               False
                   2                   7        -78.69696456         54.50005329         24.19691127        -39.39850892         5.940191371        -15.15157101         141.6853319               False
                   2                   8        -70.77670939         62.42030845         8.356400945         93.79850892         5.940191371        -27.03195375         205.3185779               False
                   3                   1         23.53910097        -21.31413518        -2.224965796         49.62661807         1.719094379          9.54458469         95.86743436               False
                   3                   2         25.83122681        -19.02200934        -6.809217474         4.773381926         1.719094379         6.106395931         42.45312045               False
                   3                   3        -25.83122681         19.02200934         6.809217474         4.773381926        -1.719094379         6.106395931         42.45312045               False
                   3                   4        -23.53910097         21.31413518         2.224965796         49.62661807        -1.719094379          9.54458469         95.86743436               False
                   3                   5         23.53910097        -21.31413518        -2.224965796         49.62661807        -1.719094379         -9.54458469         95.86743436               False
                   3                   6         25.83122681        -19.02200934        -6.809217474         4.773381926        -1.719094379        -6.106395931         42.45312045               False
                   3                   7        -25.83122681         19.02200934         6.809217474         4.773381926         1.719094379        -6.106395931         42.45312045               False
                   3                   8        -23.53910097         21.31413518         2.224965796         49.62661807         1.719094379         -9.54458469         95.86743436               False

***** Strain Data ******
          Element No         Integral No           Strain XX           Strain YY           Strain ZZ           Strain XY           Strain XZ           Strain YZ
                   1                   1     0.0008429035432    -0.0004625037584    -0.0003803997848      0.001642169206    -0.0001121561137     8.210397361e-05
                   1                   2     0.0007681328007    -0.0005372745009    -0.0002308582999    -0.0009686453968    -0.0001121561137      0.000306416201
                   1                   3    -0.0007681328007     0.0005372745009     0.0002308582999    -0.0009686453968     0.0001121561137      0.000306416201
                   1                   4    -0.0008429035432     0.0004625037584     0.0003803997848      0.001642169206     0.0001121561137     8.210397361e-05
                   1                   5     0.0008429035432    -0.0004625037584    -0.0003803997848      0.001642169206     0.0001121561137    -8.210397361e-05
                   1                   6     0.0007681328007    -0.0005372745009    -0.0002308582999    -0.0009686453968     0.0001121561137     -0.000306416201
                   1                   7    -0.0007681328007     0.0005372745009     0.0002308582999    -0.0009686453968    -0.0001121561137     -0.000306416201
                   1                   8    -0.0008429035432     0.0004625037584     0.0003803997848      0.001642169206    -0.0001121561137    -8.210397361e-05
                   2                   1     0.0004381415343    -0.0003864114333    -5.173010109e-05      0.001161314872      7.35452265e-05     0.0003346813322
                   2                   2     0.0004871716854    -0.0003373812823    -0.0001497904031    -0.0004877910628      7.35452265e-05     0.0001875908792
                   2                   3    -0.0004871716854     0.0003373812823     0.0001497904031    -0.0004877910628     -7.35452265e-05     0.0001875908792
                   2                   4    -0.0004381415343     0.0003864114333     5.173010109e-05      0.001161314872     -7.35452265e-05     0.0003346813322
                   2                   5     0.0004381415343    -0.0003864114333    -5.173010109e-05      0.001161314872     -7.35452265e-05    -0.0003346813322
                   2                   6     0.0004871716854    -0.0003373812823    -0.0001497904031    -0.0004877910628     -7.35452265e-05    -0.0001875908792
                   2                   7    -0.0004871716854     0.0003373812823     0.0001497904031    -0.0004877910628      7.35452265e-05    -0.0001875908792
                   2                   8    -0.0004381415343     0.0003864114333     5.173010109e-05      0.001161314872      7.35452265e-05    -0.0003346813322
                   3                   1     0.0001457182441    -0.0001319446463    -1.377359779e-05     0.0006144247952     2.128402565e-05     0.0001181710485
                   3                   2     0.0001599075945    -0.0001177552959    -4.215229865e-05     5.909901432e-05     2.128402565e-05     7.560299725e-05
                   3                   3    -0.0001599075945     0.0001177552959     4.215229865e-05     5.909901432e-05    -2.128402565e-05     7.560299725e-05
                   3                   4    -0.0001457182441     0.0001319446463     1.377359779e-05     0.0006144247952    -2.128402565e-05     0.0001181710485
                   3                   5     0.0001457182441    -0.0001319446463    -1.377359779e-05     0.0006144247952    -2.128402565e-05    -0.0001181710485
                   3                   6     0.0001599075945    -0.0001177552959    -4.215229865e-05     5.909901432e-05    -2.128402565e-05    -7.560299725e-05
                   3                   7    -0.0001599075945     0.0001177552959     4.215229865e-05     5.909901432e-05     2.128402565e-05    -7.560299725e-05
                   3                   8    -0.0001457182441     0.0001319446463     1.377359779e-05     0.0006144247952     2.128402565e-05    -0.0001181710485

***** Plastic Strain Data ******
          Element No         Integral No          PStrain XX          PStrain YY          PStrain ZZ          PStrain XY          PStrain XZ          PStrain YZ
                   1                   1                   0                   0                   0                   0                   0                   0
                   1                   2                   0                   0                   0                   0                   0                   0
                   1                   3                   0                   0                   0                   0                   0                   0
                   1                   4                   0                   0                   0                   0                   0                   0
                   1                   5                   0                   0                   0                   0                   0                   0
                   1                   6                   0                   0                   0                   0                   0                   0
                   1                   7                   0                   0                   0                   0                   0                   0
                   1                   8                   0                   0                   0                   0                   0                   0
                   2                   1                   0                   0                   0                   0                   0                   0
                   2                   2                   0                   0                   0                   0                   0                   0
                   2                   3                   0                   0                   0                   0                   0                   0
                   2                   4                   0                   0                   0                   0                   0                   0
                   2                   5                   0                   0                   0                   0                   0                   0
                   2                   6                   0                   0                   0                   0                   0                   0
                   2                   7                   0                   0                   0                   0                   0                   0
                   2                   8                   0                   0                   0                   0                   0                   0
                   3                   1                   0                   0                   0                   0                   0                   0
                   3                   2                   0                   0                   0                   0                   0                   0
                   3                   3                   0                   0                   0                   0                   0                   0
                   3                   4                   0                   0                   0                   0                   0                   0
                   3                   5                   0                   0                   0                   0                   0                   0
                   3                   6                   0                   0                   0                   0                   0                   0
                   3                   7                   0                   0                   0                   0                   0                   0
                   3                   8                   0                   0                   0                   0                   0                   0

***** Reaction Force Data ******
              NodeNo           Magnitude             X Force             Y Force             Z Force----------------------------------------------------------------------------------------------------
                   1         42.01559779               -40.8                -6.8         7.377700012
                   2     1.023613587e-13    -9.237055565e-14     3.552713679e-15    -4.396483178e-14
                   3     3.248750277e-13      2.54019028e-13     2.016165013e-13    -1.920685833e-14
                   4     2.313041815e-13     1.998401444e-14     1.669775429e-13     1.588104648e-13
                   5         42.01559779               -40.8                -6.8        -7.377700012
                   6     1.017468372e-13     2.842170943e-14     9.503509091e-14      2.26485497e-14
                   7     3.258386555e-13     2.025046797e-13     2.131628207e-13    -1.404432126e-13
                   8     1.053389441e-13     1.554312234e-15     5.773159728e-14      -8.8096197e-14
                   9         42.01559779                40.8                -6.8        -7.377700012
                  10     9.016214077e-14    -1.421085472e-14     8.881784197e-14    -6.217248938e-15
                  11     2.276928844e-13    -7.460698725e-14    -1.474376177e-13     1.566524688e-13
                  12     4.634617581e-13    -2.357281037e-13      -3.7658765e-13     1.319500065e-13
                  13         42.01559779                40.8                -6.8         7.377700012
                  14     9.412281966e-14     7.815970093e-14     3.730349363e-14    -3.685940442e-14
                  15     1.809888626e-13     1.705302566e-13     9.769962617e-15    -5.984102103e-14
                  16     2.714382564e-13    -9.836575998e-14    -2.522426712e-13     -1.94046168e-14

*Increment 69

***** Displacement Data ******
              NodeNo           Magnitude      X Displacement      Y Displacement      Z Displacement
----------------------------------------------------------------------------------------------------
                   1                   0                   0                   0                   0
                   2       0.00351123537      0.002294282238      0.002635996524    -0.0003414164049
                   3      0.009762453872      0.003743452337      0.009015445384    -0.0001175360831
                   4       0.01784119862      0.004231451015       0.01733206302    -5.274500501e-05
                   5                   0                   0                   0                   0
                   6       0.00351123537      0.002294282238      0.002635996524     0.0003414164049
                   7      0.009762453872      0.003743452337      0.009015445384     0.0001175360831
                   8       0.01784119862      0.004231451015       0.01733206302     5.274500501e-05
                   9                   0                   0                   0                   0
                  10       0.00351123537     -0.002294282238      0.002635996524     0.0003414164049
                  11      0.009762453872     -0.003743452337      0.009015445384     0.0001175360831
                  12       0.01784119862     -0.004231451015       0.01733206302     5.274500501e-05
                  13                   0                   0                   0                   0
                  14       0.00351123537     -0.002294282238      0.002635996524    -0.0003414164049
                  15      0.009762453872     -0.003743452337      0.009015445384    -0.0001175360831
                  16       0.01784119862     -0.004231451015       0.01733206302    -5.274500501e-05

***** Stress Data ******
          Element No         Integral No           Stress XX           Stress YY           Stress ZZ           Stress XY           Stress XZ           Stress YZ               Mises            YieldFlg
                   1                   1         138.1637143        -75.81085361        -62.35286065         134.5872839        -9.191980133          6.72899648         312.7572409               False
                   1                   2         125.9077408        -88.06682712        -37.84091363        -79.38728394        -9.191980133         25.11295675         242.1015733               False
                   1                   3        -125.9077408         88.06682712         37.84091363        -79.38728394         9.191980133         25.11295675         242.1015733               False
                   1                   4        -138.1637143         75.81085361         62.35286065         134.5872839         9.191980133          6.72899648         312.7572409               False
                   1                   5         138.1637143        -75.81085361        -62.35286065         134.5872839         9.191980133         -6.72899648         312.7572409               False
                   1                   6         125.9077408        -88.06682712        -37.84091363        -79.38728394         9.191980133        -25.11295675         242.1015733               False
                   1                   7        -125.9077408         88.06682712         37.84091363        -79.38728394        -9.191980133        -25.11295675         242.1015733               False
                   1                   8        -138.1637143         75.81085361         62.35286065         134.5872839        -9.191980133         -6.72899648         312.7572409               False
                   2                   1         71.81754336        -63.33825416        -8.479289195         95.17789876         6.027547127         27.42948248         208.3379687               False
                   2                   2         79.85427286        -55.30152466         -24.5527482        -39.97789876         6.027547127         15.37438823         143.7689397               False
                   2                   3        -79.85427286         55.30152466          24.5527482        -39.97789876        -6.027547127         15.37438823         143.7689397               False
                   2                   4        -71.81754336         63.33825416         8.479289195         95.17789876        -6.027547127         27.42948248         208.3379687               False
                   2                   5         71.81754336        -63.33825416        -8.479289195         95.17789876        -6.027547127        -27.42948248         208.3379687               False
                   2                   6         79.85427286        -55.30152466         -24.5527482        -39.97789876        -6.027547127        -15.37438823         143.7689397               False
                   2                   7        -79.85427286         55.30152466          24.5527482        -39.97789876         6.027547127        -15.37438823         143.7689397               False
                   2                   8        -71.81754336         63.33825416         8.479289195         95.17789876         6.027547127        -27.42948248         208.3379687               False
                   3                   1         23.88526422        -21.62757834        -2.257685881         50.35642128         1.744375179          9.68494623         97.27724957               False
                   3                   2         26.21109779        -19.30174477        -6.909353025         4.843578719         1.744375179         6.196195872         43.07743104               False
                   3                   3        -26.21109779         19.30174477         6.909353025         4.843578719        -1.744375179         6.196195872         43.07743104               False
                   3                   4        -23.88526422         21.62757834         2.257685881         50.35642128        -1.744375179          9.68494623         97.27724957               False
                   3                   5         23.88526422        -21.62757834        -2.257685881         50.35642128        -1.744375179         -9.68494623         97.27724957               False
                   3                   6         26.21109779        -19.30174477        -6.909353025         4.843578719        -1.744375179        -6.196195872         43.07743104               False
                   3                   7        -26.21109779         19.30174477         6.909353025         4.843578719         1.744375179        -6.196195872         43.07743104               False
                   3                   8        -23.88526422         21.62757834         2.257685881         50.35642128         1.744375179         -9.68494623         97.27724957               False

***** Strain Data ******
          Element No         Integral No           Strain XX           Strain YY           Strain ZZ           Strain XY           Strain XZ           Strain YZ
                   1                   1     0.0008552991835    -0.0004693052843    -0.0003859938993      0.001666318754    -0.0001138054683     8.331138499e-05
                   1                   2     0.0007794288713    -0.0005451755965    -0.0002342532749    -0.0009828901821    -0.0001138054683     0.0003109223216
                   1                   3    -0.0007794288713     0.0005451755965     0.0002342532749    -0.0009828901821     0.0001138054683     0.0003109223216
                   1                   4    -0.0008552991835     0.0004693052843     0.0003859938993      0.001666318754     0.0001138054683     8.331138499e-05
                   1                   5     0.0008552991835    -0.0004693052843    -0.0003859938993      0.001666318754     0.0001138054683    -8.331138499e-05
                   1                   6     0.0007794288713    -0.0005451755965    -0.0002342532749    -0.0009828901821     0.0001138054683    -0.0003109223216
                   1                   7    -0.0007794288713     0.0005451755965     0.0002342532749    -0.0009828901821    -0.0001138054683    -0.0003109223216
                   1                   8    -0.0008552991835     0.0004693052843     0.0003859938993      0.001666318754    -0.0001138054683    -8.331138499e-05
                   2                   1     0.0004445847922    -0.0003920939543    -5.249083787e-05      0.001178393032     7.462677395e-05     0.0003396031165
                   2                   2     0.0004943359748    -0.0003423427717    -0.0001519932031    -0.0004949644608     7.462677395e-05     0.0001903495686
                   2                   3    -0.0004943359748     0.0003423427717     0.0001519932031    -0.0004949644608    -7.462677395e-05     0.0001903495686
                   2                   4    -0.0004445847922     0.0003920939543     5.249083787e-05      0.001178393032    -7.462677395e-05     0.0003396031165
                   2                   5     0.0004445847922    -0.0003920939543    -5.249083787e-05      0.001178393032    -7.462677395e-05    -0.0003396031165
                   2                   6     0.0004943359748    -0.0003423427717    -0.0001519932031    -0.0004949644608    -7.462677395e-05    -0.0001903495686
                   2                   7    -0.0004943359748     0.0003423427717     0.0001519932031    -0.0004949644608     7.462677395e-05    -0.0001903495686
                   2                   8    -0.0004445847922     0.0003920939543     5.249083787e-05      0.001178393032     7.462677395e-05    -0.0003396031165
                   3                   1     0.0001478611595    -0.0001338850088    -1.397615069e-05      0.000623460454     2.159702603e-05     0.0001199088581
                   3                   2     0.0001622591768    -0.0001194869914    -4.277218539e-05     5.996811747e-05     2.159702603e-05     7.671480603e-05
                   3                   3    -0.0001622591768     0.0001194869914     4.277218539e-05     5.996811747e-05    -2.159702603e-05     7.671480603e-05
                   3                   4    -0.0001478611595     0.0001338850088     1.397615069e-05      0.000623460454    -2.159702603e-05     0.0001199088581
                   3                   5     0.0001478611595    -0.0001338850088    -1.397615069e-05      0.000623460454    -2.159702603e-05    -0.0001199088581
                   3                   6     0.0001622591768    -0.0001194869914    -4.277218539e-05     5.996811747e-05    -2.159702603e-05    -7.671480603e-05
                   3                   7    -0.0001622591768     0.0001194869914     4.277218539e-05     5.996811747e-05     2.159702603e-05    -7.671480603e-05
                   3                   8    -0.0001478611595     0.0001338850088     1.397615069e-05      0.000623460454     2.159702603e-05    -0.0001199088581

***** Plastic Strain Data ******
          Element No         Integral No          PStrain XX          PStrain YY          PStrain ZZ          PStrain XY          PStrain XZ          PStrain YZ
                   1                   1                   0                   0                   0                   0                   0                   0
                   1                   2                   0                   0                   0                   0                   0                   0
                   1                   3                   0                   0                   0                   0                   0                   0
                   1                   4                   0                   0                   0                   0                   0                   0
                   1                   5                   0                   0                   0                   0                   0                   0
                   1                   6                   0                   0                   0                   0                   0                   0
                   1                   7                   0                   0                   0                   0                   0                   0
                   1                   8                   0                   0                   0                   0                   0                   0
                   2                   1                   0                   0                   0                   0                   0                   0
                   2                   2                   0                   0                   0                   0                   0                   0
                   2                   3                   0                   0                   0                   0                   0                   0
                   2                   4                   0                   0                   0                   0                   0                   0
                   2                   5                   0                   0                   0                   0                   0                   0
                   2                   6                   0                   0                   0                   0                   0                   0
                   2                   7                   0                   0                   0                   0                   0                   0
                   2                   8                   0                   0                   0                   0                   0                   0
                   3                   1                   0                   0                   0                   0                   0                   0
                   3                   2                   0                   0                   0                   0                   0                   0
                   3                   3                   0                   0                   0                   0                   0                   0
                   3                   4                   0                   0                   0                   0                   0                   0
                   3                   5                   0                   0                   0                   0                   0                   0
                   3                   6                   0                   0                   0                   0                   0                   0
                   3                   7                   0                   0                   0                   0                   0                   0
                   3                   8                   0                   0                   0                   0                   0                   0

***** Reaction Force Data ******
              NodeNo           Magnitude             X Force             Y Force             Z Force----------------------------------------------------------------------------------------------------
                   1         42.63347423               -41.4                -6.9         7.486195601
                   2     8.834138857e-14    -3.907985047e-14    -4.796163466e-14     -6.30606678e-14
                   3     2.308858197e-13     2.060573934e-13     1.012523398e-13    -2.442490654e-14
                   4     2.260533716e-13     8.160139231e-15     1.687538997e-13     1.501854197e-13
                   5         42.63347423               -41.4                -6.9        -7.486195601
                   6     9.148668867e-14     5.329070518e-14     6.483702464e-14     3.641531521e-14
                   7      2.73017928e-13     1.723066134e-13     1.598721155e-13    -1.388889004e-13
                   8     8.019255879e-14      2.26485497e-14     5.595524044e-14    -5.279110482e-14
                   9         42.63347423                41.4                -6.9        -7.486195601
                  10     1.365659164e-13    -7.105427358e-15     1.358912982e-13    -1.154631946e-14
                  11     1.665056588e-13    -7.638334409e-14    -9.237055565e-14     1.155742169e-13
                  12     4.014778574e-13    -2.172706459e-13    -3.241851232e-13       9.4244057e-14
                  13         42.63347423                41.4                -6.9         7.486195601
                  14      1.22456744e-13     6.394884622e-14     1.003641614e-13    -2.886579864e-14
                  15     1.645086805e-13     1.598721155e-13    -5.329070518e-15    -3.841371665e-14
                  16     2.404408734e-13    -4.662936703e-14    -2.353672812e-13     1.548414175e-14

*Increment 70

***** Displacement Data ******
              NodeNo           Magnitude      X Displacement      Y Displacement      Z Displacement
----------------------------------------------------------------------------------------------------
                   1                   0                   0                   0                   0
                   2      0.003562122839      0.002327532705      0.002674199372    -0.0003463644688
                   3      0.009903938711      0.003797705269      0.009146104013    -0.0001192395046
                   4       0.01809976672      0.004292776392       0.01758325234    -5.350942538e-05
                   5                   0                   0                   0                   0
                   6      0.003562122839      0.002327532705      0.002674199372     0.0003463644688
                   7      0.009903938711      0.003797705269      0.009146104013     0.0001192395046
                   8       0.01809976672      0.004292776392       0.01758325234     5.350942538e-05
                   9                   0                   0                   0                   0
                  10      0.003562122839     -0.002327532705      0.002674199372     0.0003463644688
                  11      0.009903938711     -0.003797705269      0.009146104013     0.0001192395046
                  12       0.01809976672     -0.004292776392       0.01758325234     5.350942538e-05
                  13                   0                   0                   0                   0
                  14      0.003562122839     -0.002327532705      0.002674199372    -0.0003463644688
                  15      0.009903938711     -0.003797705269      0.009146104013    -0.0001192395046
                  16       0.01809976672     -0.004292776392       0.01758325234    -5.350942538e-05

***** Stress Data ******
          Element No         Integral No           Stress XX           Stress YY           Stress ZZ           Stress XY           Stress XZ           Stress YZ               Mises            YieldFlg
                   1                   1         140.1660869        -76.90956163         -63.2565253         136.5378243        -9.325197237         6.826518168         317.2899545               False
                   1                   2         127.7324906        -89.34315795        -38.38933267        -80.53782428        -9.325197237         25.47691264         245.6102917               False
                   1                   3        -127.7324906         89.34315795         38.38933267        -80.53782428         9.325197237         25.47691264         245.6102917               False
                   1                   4        -140.1660869         76.90956163          63.2565253         136.5378243         9.325197237         6.826518168         317.2899545               False
                   1                   5         140.1660869        -76.90956163         -63.2565253         136.5378243         9.325197237        -6.826518168         317.2899545               False
                   1                   6         127.7324906        -89.34315795        -38.38933267        -80.53782428         9.325197237        -25.47691264         245.6102917               False
                   1                   7        -127.7324906         89.34315795         38.38933267        -80.53782428        -9.325197237        -25.47691264         245.6102917               False
                   1                   8        -140.1660869         76.90956163          63.2565253         136.5378243        -9.325197237        -6.826518168         317.2899545               False
                   2                   1         72.85837732        -64.25619987        -8.602177444          96.5572886         6.114902882         27.82701122         211.3573596               False
                   2                   2         81.01158116        -56.10299603        -24.90858513         -40.5572886         6.114902882         15.59720545         145.8525476               False
                   2                   3        -81.01158116         56.10299603         24.90858513         -40.5572886        -6.114902882         15.59720545         145.8525476               False
                   2                   4        -72.85837732         64.25619987         8.602177444          96.5572886        -6.114902882         27.82701122         211.3573596               False
                   2                   5         72.85837732        -64.25619987        -8.602177444          96.5572886        -6.114902882        -27.82701122         211.3573596               False
                   2                   6         81.01158116        -56.10299603        -24.90858513         -40.5572886        -6.114902882        -15.59720545         145.8525476               False
                   2                   7        -81.01158116         56.10299603         24.90858513         -40.5572886         6.114902882        -15.59720545         145.8525476               False
                   2                   8        -72.85837732         64.25619987         8.602177444          96.5572886         6.114902882        -27.82701122         211.3573596               False
                   3                   1         24.23142747         -21.9410215        -2.290405967         51.08622449         1.769655979         9.825307769         98.68706478               False
                   3                   2         26.59096878         -19.5814802        -7.009488576         4.913775512         1.769655979         6.285995812         43.70174164               False
                   3                   3        -26.59096878          19.5814802         7.009488576         4.913775512        -1.769655979         6.285995812         43.70174164               False
                   3                   4        -24.23142747          21.9410215         2.290405967         51.08622449        -1.769655979         9.825307769         98.68706478               False
                   3                   5         24.23142747         -21.9410215        -2.290405967         51.08622449        -1.769655979        -9.825307769         98.68706478               False
                   3                   6         26.59096878         -19.5814802        -7.009488576         4.913775512        -1.769655979        -6.285995812         43.70174164               False
                   3                   7        -26.59096878          19.5814802         7.009488576         4.913775512         1.769655979        -6.285995812         43.70174164               False
                   3                   8        -24.23142747          21.9410215         2.290405967         51.08622449         1.769655979        -9.825307769         98.68706478               False

***** Strain Data ******
          Element No         Integral No           Strain XX           Strain YY           Strain ZZ           Strain XY           Strain XZ           Strain YZ
                   1                   1     0.0008676948239    -0.0004761068101    -0.0003915880138      0.001690468301    -0.0001154548229     8.451879636e-05
                   1                   2     0.0007907249419    -0.0005530766921    -0.0002376482499    -0.0009971349673    -0.0001154548229     0.0003154284422
                   1                   3    -0.0007907249419     0.0005530766921     0.0002376482499    -0.0009971349673     0.0001154548229     0.0003154284422
                   1                   4    -0.0008676948239     0.0004761068101     0.0003915880138      0.001690468301     0.0001154548229     8.451879636e-05
                   1                   5     0.0008676948239    -0.0004761068101    -0.0003915880138      0.001690468301     0.0001154548229    -8.451879636e-05
                   1                   6     0.0007907249419    -0.0005530766921    -0.0002376482499    -0.0009971349673     0.0001154548229    -0.0003154284422
                   1                   7    -0.0007907249419     0.0005530766921     0.0002376482499    -0.0009971349673    -0.0001154548229    -0.0003154284422
                   1                   8    -0.0008676948239     0.0004761068101     0.0003915880138      0.001690468301    -0.0001154548229    -8.451879636e-05
                   2                   1     0.0004510280501    -0.0003977764754    -5.325157465e-05      0.001195471192      7.57083214e-05     0.0003445249008
                   2                   2     0.0005015002643    -0.0003473042611    -0.0001541960032    -0.0005021378588      7.57083214e-05      0.000193108258
                   2                   3    -0.0005015002643     0.0003473042611     0.0001541960032    -0.0005021378588     -7.57083214e-05      0.000193108258
                   2                   4    -0.0004510280501     0.0003977764754     5.325157465e-05      0.001195471192     -7.57083214e-05     0.0003445249008
                   2                   5     0.0004510280501    -0.0003977764754    -5.325157465e-05      0.001195471192     -7.57083214e-05    -0.0003445249008
                   2                   6     0.0005015002643    -0.0003473042611    -0.0001541960032    -0.0005021378588     -7.57083214e-05     -0.000193108258
                   2                   7    -0.0005015002643     0.0003473042611     0.0001541960032    -0.0005021378588      7.57083214e-05     -0.000193108258
                   2                   8    -0.0004510280501     0.0003977764754     5.325157465e-05      0.001195471192      7.57083214e-05    -0.0003445249008
                   3                   1     0.0001500040748    -0.0001358253712     -1.41787036e-05     0.0006324961127      2.19100264e-05     0.0001216466676
                   3                   2     0.0001646107591     -0.000121218687    -4.339207214e-05     6.083722062e-05      2.19100264e-05     7.782661481e-05
                   3                   3    -0.0001646107591      0.000121218687     4.339207214e-05     6.083722062e-05     -2.19100264e-05     7.782661481e-05
                   3                   4    -0.0001500040748     0.0001358253712      1.41787036e-05     0.0006324961127     -2.19100264e-05     0.0001216466676
                   3                   5     0.0001500040748    -0.0001358253712     -1.41787036e-05     0.0006324961127     -2.19100264e-05    -0.0001216466676
                   3                   6     0.0001646107591     -0.000121218687    -4.339207214e-05     6.083722062e-05     -2.19100264e-05    -7.782661481e-05
                   3                   7    -0.0001646107591      0.000121218687     4.339207214e-05     6.083722062e-05      2.19100264e-05    -7.782661481e-05
                   3                   8    -0.0001500040748     0.0001358253712      1.41787036e-05     0.0006324961127      2.19100264e-05    -0.0001216466676

***** Plastic Strain Data ******
          Element No         Integral No          PStrain XX          PStrain YY          PStrain ZZ          PStrain XY          PStrain XZ          PStrain YZ
                   1                   1                   0                   0                   0                   0                   0                   0
                   1                   2                   0                   0                   0                   0                   0                   0
                   1                   3                   0                   0                   0                   0                   0                   0
                   1                   4                   0                   0                   0                   0                   0                   0
                   1                   5                   0                   0                   0                   0                   0                   0
                   1                   6                   0                   0                   0                   0                   0                   0
                   1                   7                   0                   0                   0                   0                   0                   0
                   1                   8                   0                   0                   0                   0                   0                   0
                   2                   1                   0                   0                   0                   0                   0                   0
                   2                   2                   0                   0                   0                   0                   0                   0
                   2                   3                   0                   0                   0                   0                   0                   0
                   2                   4                   0                   0                   0                   0                   0                   0
                   2                   5                   0                   0                   0                   0                   0                   0
                   2                   6                   0                   0                   0                   0                   0                   0
                   2                   7                   0                   0                   0                   0                   0                   0
                   2                   8                   0                   0                   0                   0                   0                   0
                   3                   1                   0                   0                   0                   0                   0                   0
                   3                   2                   0                   0                   0                   0                   0                   0
                   3                   3                   0                   0                   0                   0                   0                   0
                   3                   4                   0                   0                   0                   0                   0                   0
                   3                   5                   0                   0                   0                   0                   0                   0
                   3                   6                   0                   0                   0                   0                   0                   0
                   3                   7                   0                   0                   0                   0                   0                   0
                   3                   8                   0                   0                   0                   0                   0                   0

***** Reaction Force Data ******
              NodeNo           Magnitude             X Force             Y Force             Z Force----------------------------------------------------------------------------------------------------
                   1         43.25135066                 -42                  -7         7.594691189
                   2     1.356043691e-13    -9.237055565e-14    -6.394884622e-14    -7.593925488e-14
                   3     3.584745105e-13     2.913225217e-13     2.078337502e-13    -2.098321517e-14
                   4      2.72367785e-13     8.215650382e-15     1.962874308e-13     1.886477086e-13
                   5         43.25135066                 -42                  -7        -7.594691189
                   6     6.327920634e-14     1.421085472e-14     4.085620731e-14     4.618527782e-14
                   7     3.932025651e-13     2.629008122e-13     2.495781359e-13     -1.52322599e-13
                   8     1.223777165e-13     1.709743458e-14     8.881784197e-14    -8.243405958e-14
                   9         43.25135066                  42                  -7        -7.594691189
                  10     1.563881449e-13     1.065814104e-14     1.483257961e-13    -4.840572387e-14
                  11     1.814673713e-13     -6.75015599e-14     -1.10134124e-13     1.274536032e-13
                  12     5.455552929e-13    -3.044786645e-13    -4.281019983e-13     1.471461841e-13
                  13         43.25135066                  42                  -7         7.594691189
                  14     1.268821239e-13     8.881784197e-14     9.059419881e-14    -1.776356839e-15
                  15     2.131620112e-13     2.078337502e-13     2.575717417e-14    -3.974598428e-14
                  16     3.626858219e-13    -1.143529715e-13      -3.4283687e-13     -3.04513359e-14

*Increment 71

***** Displacement Data ******
              NodeNo           Magnitude      X Displacement      Y Displacement      Z Displacement
----------------------------------------------------------------------------------------------------
                   1                   0                   0                   0                   0
                   2      0.003613010308      0.002360783173       0.00271240222    -0.0003513125326
                   3       0.01004542355      0.003851958202      0.009276762642    -0.0001209429261
                   4       0.01835833482      0.004354101769       0.01783444166    -5.427384574e-05
                   5                   0                   0                   0                   0
                   6      0.003613010308      0.002360783173       0.00271240222     0.0003513125326
                   7       0.01004542355      0.003851958202      0.009276762642     0.0001209429261
                   8       0.01835833482      0.004354101769       0.01783444166     5.427384574e-05
                   9                   0                   0                   0                   0
                  10      0.003613010308     -0.002360783173       0.00271240222     0.0003513125326
                  11       0.01004542355     -0.003851958202      0.009276762642     0.0001209429261
                  12       0.01835833482     -0.004354101769       0.01783444166     5.427384574e-05
                  13                   0                   0                   0                   0
                  14      0.003613010308     -0.002360783173       0.00271240222    -0.0003513125326
                  15       0.01004542355     -0.003851958202      0.009276762642    -0.0001209429261
                  16       0.01835833482     -0.004354101769       0.01783444166    -5.427384574e-05

***** Stress Data ******
          Element No         Integral No           Stress XX           Stress YY           Stress ZZ           Stress XY           Stress XZ           Stress YZ               Mises            YieldFlg
                   1                   1         142.1684596        -78.00826966        -64.16018995         138.4883646         -9.45841434         6.924039856         321.8226681               False
                   1                   2         129.5572405        -90.61948878        -38.93775171        -81.68836463         -9.45841434         25.84086854         249.1190102               False
                   1                   3        -129.5572405         90.61948878         38.93775171        -81.68836463          9.45841434         25.84086854         249.1190102               False
                   1                   4        -142.1684596         78.00826966         64.16018995         138.4883646          9.45841434         6.924039856         321.8226681               False
                   1                   5         142.1684596        -78.00826966        -64.16018995         138.4883646          9.45841434        -6.924039856         321.8226681               False
                   1                   6         129.5572405        -90.61948878        -38.93775171        -81.68836463          9.45841434        -25.84086854         249.1190102               False
                   1                   7        -129.5572405         90.61948878         38.93775171        -81.68836463         -9.45841434        -25.84086854         249.1190102               False
                   1                   8        -142.1684596         78.00826966         64.16018995         138.4883646         -9.45841434        -6.924039856         321.8226681               False
                   2                   1         73.89921128        -65.17414559        -8.725065693         97.93667843         6.202258638         28.22453995         214.3767504               False
                   2                   2         82.16888946         -56.9044674        -25.26442206        -41.13667843         6.202258638         15.82002267         147.9361554               False
                   2                   3        -82.16888946          56.9044674         25.26442206        -41.13667843        -6.202258638         15.82002267         147.9361554               False
                   2                   4        -73.89921128         65.17414559         8.725065693         97.93667843        -6.202258638         28.22453995         214.3767504               False
                   2                   5         73.89921128        -65.17414559        -8.725065693         97.93667843        -6.202258638        -28.22453995         214.3767504               False
                   2                   6         82.16888946         -56.9044674        -25.26442206        -41.13667843        -6.202258638        -15.82002267         147.9361554               False
                   2                   7        -82.16888946          56.9044674         25.26442206        -41.13667843         6.202258638        -15.82002267         147.9361554               False
                   2                   8        -73.89921128         65.17414559         8.725065693         97.93667843         6.202258638        -28.22453995         214.3767504               False
                   3                   1         24.57759072        -22.25446467        -2.323126052          51.8160277         1.794936778         9.965669309           100.09688               False
                   3                   2         26.97083976        -19.86121563        -7.109624128         4.983972305         1.794936778         6.375795752         44.32605223               False
                   3                   3        -26.97083976         19.86121563         7.109624128         4.983972305        -1.794936778         6.375795752         44.32605223               False
                   3                   4        -24.57759072         22.25446467         2.323126052          51.8160277        -1.794936778         9.965669309           100.09688               False
                   3                   5         24.57759072        -22.25446467        -2.323126052          51.8160277        -1.794936778        -9.965669309           100.09688               False
                   3                   6         26.97083976        -19.86121563        -7.109624128         4.983972305        -1.794936778        -6.375795752         44.32605223               False
                   3                   7        -26.97083976         19.86121563         7.109624128         4.983972305         1.794936778        -6.375795752         44.32605223               False
                   3                   8        -24.57759072         22.25446467         2.323126052          51.8160277         1.794936778        -9.965669309           100.09688               False

***** Strain Data ******
          Element No         Integral No           Strain XX           Strain YY           Strain ZZ           Strain XY           Strain XZ           Strain YZ
                   1                   1     0.0008800904642     -0.000482908336    -0.0003971821282      0.001714617848    -0.0001171041775     8.572620774e-05
                   1                   2     0.0008020210125    -0.0005609777877    -0.0002410432248     -0.001011379753    -0.0001171041775     0.0003199345628
                   1                   3    -0.0008020210125     0.0005609777877     0.0002410432248     -0.001011379753     0.0001171041775     0.0003199345628
                   1                   4    -0.0008800904642      0.000482908336     0.0003971821282      0.001714617848     0.0001171041775     8.572620774e-05
                   1                   5     0.0008800904642     -0.000482908336    -0.0003971821282      0.001714617848     0.0001171041775    -8.572620774e-05
                   1                   6     0.0008020210125    -0.0005609777877    -0.0002410432248     -0.001011379753     0.0001171041775    -0.0003199345628
                   1                   7    -0.0008020210125     0.0005609777877     0.0002410432248     -0.001011379753    -0.0001171041775    -0.0003199345628
                   1                   8    -0.0008800904642      0.000482908336     0.0003971821282      0.001714617848    -0.0001171041775    -8.572620774e-05
                   2                   1     0.0004574713079    -0.0004034589965    -5.401231143e-05      0.001212549352     7.678986885e-05     0.0003494466851
                   2                   2     0.0005086645538    -0.0003522657506    -0.0001563988032    -0.0005093112568     7.678986885e-05     0.0001958669474
                   2                   3    -0.0005086645538     0.0003522657506     0.0001563988032    -0.0005093112568    -7.678986885e-05     0.0001958669474
                   2                   4    -0.0004574713079     0.0004034589965     5.401231143e-05      0.001212549352    -7.678986885e-05     0.0003494466851
                   2                   5     0.0004574713079    -0.0004034589965    -5.401231143e-05      0.001212549352    -7.678986885e-05    -0.0003494466851
                   2                   6     0.0005086645538    -0.0003522657506    -0.0001563988032    -0.0005093112568    -7.678986885e-05    -0.0001958669474
                   2                   7    -0.0005086645538     0.0003522657506     0.0001563988032    -0.0005093112568     7.678986885e-05    -0.0001958669474
                   2                   8    -0.0004574713079     0.0004034589965     5.401231143e-05      0.001212549352     7.678986885e-05    -0.0003494466851
                   3                   1     0.0001521469902    -0.0001377657337    -1.438125651e-05     0.0006415317715     2.222302678e-05     0.0001233844772
                   3                   2     0.0001669623414    -0.0001229503825    -4.401195888e-05     6.170632378e-05     2.222302678e-05     7.893842359e-05
                   3                   3    -0.0001669623414     0.0001229503825     4.401195888e-05     6.170632378e-05    -2.222302678e-05     7.893842359e-05
                   3                   4    -0.0001521469902     0.0001377657337     1.438125651e-05     0.0006415317715    -2.222302678e-05     0.0001233844772
                   3                   5     0.0001521469902    -0.0001377657337    -1.438125651e-05     0.0006415317715    -2.222302678e-05    -0.0001233844772
                   3                   6     0.0001669623414    -0.0001229503825    -4.401195888e-05     6.170632378e-05    -2.222302678e-05    -7.893842359e-05
                   3                   7    -0.0001669623414     0.0001229503825     4.401195888e-05     6.170632378e-05     2.222302678e-05    -7.893842359e-05
                   3                   8    -0.0001521469902     0.0001377657337     1.438125651e-05     0.0006415317715     2.222302678e-05    -0.0001233844772

***** Plastic Strain Data ******
          Element No         Integral No          PStrain XX          PStrain YY          PStrain ZZ          PStrain XY          PStrain XZ          PStrain YZ
                   1                   1                   0                   0                   0                   0                   0                   0
                   1                   2                   0                   0                   0                   0                   0                   0
                   1                   3                   0                   0                   0                   0                   0                   0
                   1                   4                   0                   0                   0                   0                   0                   0
                   1                   5                   0                   0                   0                   0                   0                   0
                   1                   6                   0                   0                   0                   0                   0                   0
                   1                   7                   0                   0                   0                   0                   0                   0
                   1                   8                   0                   0                   0                   0                   0                   0
                   2                   1                   0                   0                   0                   0                   0                   0
                   2                   2                   0                   0                   0                   0                   0                   0
                   2                   3                   0                   0                   0                   0                   0                   0
                   2                   4                   0                   0                   0                   0                   0                   0
                   2                   5                   0                   0                   0                   0                   0                   0
                   2                   6                   0                   0                   0                   0                   0                   0
                   2                   7                   0                   0                   0                   0                   0                   0
                   2                   8                   0                   0                   0                   0                   0                   0
                   3                   1                   0                   0                   0                   0                   0                   0
                   3                   2                   0                   0                   0                   0                   0                   0
                   3                   3                   0                   0                   0                   0                   0                   0
                   3                   4                   0                   0                   0                   0                   0                   0
                   3                   5                   0                   0                   0                   0                   0                   0
                   3                   6                   0                   0                   0                   0                   0                   0
                   3                   7                   0                   0                   0                   0                   0                   0
                   3                   8                   0                   0                   0                   0                   0                   0

***** Reaction Force Data ******
              NodeNo           Magnitude             X Force             Y Force             Z Force----------------------------------------------------------------------------------------------------
                   1          43.8692271               -42.6                -7.1         7.703186777
                   2     7.824166307e-14    -5.684341886e-14    -1.776356839e-15    -5.373479439e-14
                   3     3.429447295e-13     2.309263891e-13     2.522426712e-13     2.564615187e-14
                   4     3.851797346e-13    -3.452793607e-14     3.250733016e-13     2.037120472e-13
                   5          43.8692271               -42.6                -7.1        -7.703186777
                   6     9.451591456e-14     3.907985047e-14     8.348877145e-14     2.087219286e-14
                   7     4.186291682e-13     1.918465387e-13     3.002043059e-13    -2.198241589e-13
                   8     2.284085832e-13     -4.95159469e-14     1.953992523e-13    -1.074140776e-13
                   9          43.8692271                42.6                -7.1        -7.703186777
                  10     8.738520219e-14     1.776356839e-14     8.526512829e-14    -7.105427358e-15
                  11     3.435999642e-13    -2.486899575e-14    -2.655653475e-13     2.166045121e-13
                  12     5.829727295e-13    -2.845501612e-13    -4.813927035e-13     1.647709746e-13
                  13          43.8692271                42.6                -7.1         7.703186777
                  14     1.424059146e-13     1.278976924e-13     5.062616992e-14    -3.685940442e-14
                  15     3.051002963e-13     2.788880238e-13    -7.460698725e-14    -9.869882689e-14
                  16     3.917362371e-13    -1.383337889e-13    -3.632649737e-13    -4.857572677e-14

*Increment 72

***** Displacement Data ******
              NodeNo           Magnitude      X Displacement      Y Displacement      Z Displacement
----------------------------------------------------------------------------------------------------
                   1                   0                   0                   0                   0
                   2      0.003663897777       0.00239403364      0.002750605068    -0.0003562605965
                   3       0.01018690839      0.003906211134      0.009407421271    -0.0001226463476
                   4       0.01861690291      0.004415427146       0.01808563098     -5.50382661e-05
                   5                   0                   0                   0                   0
                   6      0.003663897777       0.00239403364      0.002750605068     0.0003562605965
                   7       0.01018690839      0.003906211134      0.009407421271     0.0001226463476
                   8       0.01861690291      0.004415427146       0.01808563098      5.50382661e-05
                   9                   0                   0                   0                   0
                  10      0.003663897777      -0.00239403364      0.002750605068     0.0003562605965
                  11       0.01018690839     -0.003906211134      0.009407421271     0.0001226463476
                  12       0.01861690291     -0.004415427146       0.01808563098      5.50382661e-05
                  13                   0                   0                   0                   0
                  14      0.003663897777      -0.00239403364      0.002750605068    -0.0003562605965
                  15       0.01018690839     -0.003906211134      0.009407421271    -0.0001226463476
                  16       0.01861690291     -0.004415427146       0.01808563098     -5.50382661e-05

***** Stress Data ******
          Element No         Integral No           Stress XX           Stress YY           Stress ZZ           Stress XY           Stress XZ           Stress YZ               Mises            YieldFlg
                   1                   1         144.1708323        -79.10697768        -65.06385459          140.438905        -9.591631443         7.021561544         326.3553818               False
                   1                   2         131.3819903        -91.89581961        -39.48617074        -82.83890498        -9.591631443         26.20482443         252.6277286               False
                   1                   3        -131.3819903         91.89581961         39.48617074        -82.83890498         9.591631443         26.20482443         252.6277286               False
                   1                   4        -144.1708323         79.10697768         65.06385459          140.438905         9.591631443         7.021561544         326.3553818               False
                   1                   5         144.1708323        -79.10697768        -65.06385459          140.438905         9.591631443        -7.021561544         326.3553818               False
                   1                   6         131.3819903        -91.89581961        -39.48617074        -82.83890498         9.591631443        -26.20482443         252.6277286               False
                   1                   7        -131.3819903         91.89581961         39.48617074        -82.83890498        -9.591631443        -26.20482443         252.6277286               False
                   1                   8        -144.1708323         79.10697768         65.06385459          140.438905        -9.591631443        -7.021561544         326.3553818               False
                   2                   1         74.94004524         -66.0920913        -8.847953942         99.31606827         6.289614393         28.62206868         217.3961413               False
                   2                   2         83.32619777        -57.70593877        -25.62025899        -41.71606827         6.289614393         16.04283989         150.0197632               False
                   2                   3        -83.32619777         57.70593877         25.62025899        -41.71606827        -6.289614393         16.04283989         150.0197632               False
                   2                   4        -74.94004524          66.0920913         8.847953942         99.31606827        -6.289614393         28.62206868         217.3961413               False
                   2                   5         74.94004524         -66.0920913        -8.847953942         99.31606827        -6.289614393        -28.62206868         217.3961413               False
                   2                   6         83.32619777        -57.70593877        -25.62025899        -41.71606827        -6.289614393        -16.04283989         150.0197632               False
                   2                   7        -83.32619777         57.70593877         25.62025899        -41.71606827         6.289614393        -16.04283989         150.0197632               False
                   2                   8        -74.94004524          66.0920913         8.847953942         99.31606827         6.289614393        -28.62206868         217.3961413               False
                   3                   1         24.92375397        -22.56790783        -2.355846137          52.5458309         1.820217578         10.10603085         101.5066952               False
                   3                   2         27.35071074        -20.14095106        -7.209759679         5.054169098         1.820217578         6.465595692         44.95036283               False
                   3                   3        -27.35071074         20.14095106         7.209759679         5.054169098        -1.820217578         6.465595692         44.95036283               False
                   3                   4        -24.92375397         22.56790783         2.355846137          52.5458309        -1.820217578         10.10603085         101.5066952               False
                   3                   5         24.92375397        -22.56790783        -2.355846137          52.5458309        -1.820217578        -10.10603085         101.5066952               False
                   3                   6         27.35071074        -20.14095106        -7.209759679         5.054169098        -1.820217578        -6.465595692         44.95036283               False
                   3                   7        -27.35071074         20.14095106         7.209759679         5.054169098         1.820217578        -6.465595692         44.95036283               False
                   3                   8        -24.92375397         22.56790783         2.355846137          52.5458309         1.820217578        -10.10603085         101.5066952               False

***** Strain Data ******
          Element No         Integral No           Strain XX           Strain YY           Strain ZZ           Strain XY           Strain XZ           Strain YZ
                   1                   1     0.0008924861046    -0.0004897098618    -0.0004027762427      0.001738767395    -0.0001187535322     8.693361912e-05
                   1                   2     0.0008133170831    -0.0005688788833    -0.0002444381998     -0.001025624538    -0.0001187535322     0.0003244406834
                   1                   3    -0.0008133170831     0.0005688788833     0.0002444381998     -0.001025624538     0.0001187535322     0.0003244406834
                   1                   4    -0.0008924861046     0.0004897098618     0.0004027762427      0.001738767395     0.0001187535322     8.693361912e-05
                   1                   5     0.0008924861046    -0.0004897098618    -0.0004027762427      0.001738767395     0.0001187535322    -8.693361912e-05
                   1                   6     0.0008133170831    -0.0005688788833    -0.0002444381998     -0.001025624538     0.0001187535322    -0.0003244406834
                   1                   7    -0.0008133170831     0.0005688788833     0.0002444381998     -0.001025624538    -0.0001187535322    -0.0003244406834
                   1                   8    -0.0008924861046     0.0004897098618     0.0004027762427      0.001738767395    -0.0001187535322    -8.693361912e-05
                   2                   1     0.0004639145658    -0.0004091415176    -5.477304821e-05      0.001229627512      7.78714163e-05     0.0003543684694
                   2                   2     0.0005158288433      -0.00035722724    -0.0001586016033    -0.0005164846548      7.78714163e-05     0.0001986256368
                   2                   3    -0.0005158288433       0.00035722724     0.0001586016033    -0.0005164846548     -7.78714163e-05     0.0001986256368
                   2                   4    -0.0004639145658     0.0004091415176     5.477304821e-05      0.001229627512     -7.78714163e-05     0.0003543684694
                   2                   5     0.0004639145658    -0.0004091415176    -5.477304821e-05      0.001229627512     -7.78714163e-05    -0.0003543684694
                   2                   6     0.0005158288433      -0.00035722724    -0.0001586016033    -0.0005164846548     -7.78714163e-05    -0.0001986256368
                   2                   7    -0.0005158288433       0.00035722724     0.0001586016033    -0.0005164846548      7.78714163e-05    -0.0001986256368
                   2                   8    -0.0004639145658     0.0004091415176     5.477304821e-05      0.001229627512      7.78714163e-05    -0.0003543684694
                   3                   1     0.0001542899055    -0.0001397060961    -1.458380942e-05     0.0006505674302     2.253602716e-05     0.0001251222867
                   3                   2     0.0001693139236     -0.000124682078    -4.463184563e-05     6.257542693e-05     2.253602716e-05     8.005023238e-05
                   3                   3    -0.0001693139236      0.000124682078     4.463184563e-05     6.257542693e-05    -2.253602716e-05     8.005023238e-05
                   3                   4    -0.0001542899055     0.0001397060961     1.458380942e-05     0.0006505674302    -2.253602716e-05     0.0001251222867
                   3                   5     0.0001542899055    -0.0001397060961    -1.458380942e-05     0.0006505674302    -2.253602716e-05    -0.0001251222867
                   3                   6     0.0001693139236     -0.000124682078    -4.463184563e-05     6.257542693e-05    -2.253602716e-05    -8.005023238e-05
                   3                   7    -0.0001693139236      0.000124682078     4.463184563e-05     6.257542693e-05     2.253602716e-05    -8.005023238e-05
                   3                   8    -0.0001542899055     0.0001397060961     1.458380942e-05     0.0006505674302     2.253602716e-05    -0.0001251222867

***** Plastic Strain Data ******
          Element No         Integral No          PStrain XX          PStrain YY          PStrain ZZ          PStrain XY          PStrain XZ          PStrain YZ
                   1                   1                   0                   0                   0                   0                   0                   0
                   1                   2                   0                   0                   0                   0                   0                   0
                   1                   3                   0                   0                   0                   0                   0                   0
                   1                   4                   0                   0                   0                   0                   0                   0
                   1                   5                   0                   0                   0                   0                   0                   0
                   1                   6                   0                   0                   0                   0                   0                   0
                   1                   7                   0                   0                   0                   0                   0                   0
                   1                   8                   0                   0                   0                   0                   0                   0
                   2                   1                   0                   0                   0                   0                   0                   0
                   2                   2                   0                   0                   0                   0                   0                   0
                   2                   3                   0                   0                   0                   0                   0                   0
                   2                   4                   0                   0                   0                   0                   0                   0
                   2                   5                   0                   0                   0                   0                   0                   0
                   2                   6                   0                   0                   0                   0                   0                   0
                   2                   7                   0                   0                   0                   0                   0                   0
                   2                   8                   0                   0                   0                   0                   0                   0
                   3                   1                   0                   0                   0                   0                   0                   0
                   3                   2                   0                   0                   0                   0                   0                   0
                   3                   3                   0                   0                   0                   0                   0                   0
                   3                   4                   0                   0                   0                   0                   0                   0
                   3                   5                   0                   0                   0                   0                   0                   0
                   3                   6                   0                   0                   0                   0                   0                   0
                   3                   7                   0                   0                   0                   0                   0                   0
                   3                   8                   0                   0                   0                   0                   0                   0

***** Reaction Force Data ******
              NodeNo           Magnitude             X Force             Y Force             Z Force----------------------------------------------------------------------------------------------------
                   1         44.48710354               -43.2                -7.2         7.811682366
                   2     1.403216498e-13    -1.030286967e-13    -6.394884622e-14    -7.061018437e-14
                   3     2.833380516e-13     2.344791028e-13     1.572075803e-13    -2.420286194e-14
                   4      2.73463422e-13    -2.803313137e-14     1.962874308e-13     1.883285194e-13
                   5         44.48710354               -43.2                -7.2        -7.811682366
                   6     6.631220024e-14     2.486899575e-14     5.329070518e-14     3.064215548e-14
                   7     3.515908572e-13     2.025046797e-13     2.424727086e-13    -1.543210004e-13
                   8     1.309863808e-13    -1.998401444e-14     7.727152251e-14     -1.03861364e-13
                   9         44.48710354                43.2                -7.2        -7.811682366
                  10     1.083504868e-13     2.842170943e-14     1.039168751e-13    -1.154631946e-14
                  11     2.342540064e-13    -5.329070518e-14    -1.154631946e-13       1.9673152e-13
                  12     4.490379476e-13    -2.157163337e-13     -3.70370401e-13     1.338928968e-13
                  13         44.48710354                43.2                -7.2         7.811682366
                  14     1.569897755e-13     1.278976924e-13     8.881784197e-14    -1.998401444e-14
                  15     2.087337392e-13      1.98951966e-13      1.33226763e-14    -6.172840017e-14
                  16     2.866861656e-13    -9.592326933e-14    -2.682298827e-13    -3.225544831e-14

*Increment 73

***** Displacement Data ******
              NodeNo           Magnitude      X Displacement      Y Displacement      Z Displacement
----------------------------------------------------------------------------------------------------
                   1                   0                   0                   0                   0
                   2      0.003714785247      0.002427284107      0.002788807917    -0.0003612086603
                   3       0.01032839323      0.003960464066        0.0095380799    -0.0001243497691
                   4       0.01887547101      0.004476752523        0.0183368203    -5.580268646e-05
                   5                   0                   0                   0                   0
                   6      0.003714785247      0.002427284107      0.002788807917     0.0003612086603
                   7       0.01032839323      0.003960464066        0.0095380799     0.0001243497691
                   8       0.01887547101      0.004476752523        0.0183368203     5.580268646e-05
                   9                   0                   0                   0                   0
                  10      0.003714785247     -0.002427284107      0.002788807917     0.0003612086603
                  11       0.01032839323     -0.003960464066        0.0095380799     0.0001243497691
                  12       0.01887547101     -0.004476752523        0.0183368203     5.580268646e-05
                  13                   0                   0                   0                   0
                  14      0.003714785247     -0.002427284107      0.002788807917    -0.0003612086603
                  15       0.01032839323     -0.003960464066        0.0095380799    -0.0001243497691
                  16       0.01887547101     -0.004476752523        0.0183368203    -5.580268646e-05

***** Stress Data ******
          Element No         Integral No           Stress XX           Stress YY           Stress ZZ           Stress XY           Stress XZ           Stress YZ               Mises            YieldFlg
                   1                   1         146.1732049         -80.2056857        -65.96751924         142.3894453        -9.724848547         7.119083232         330.8880954               False
                   1                   2         133.2067402        -93.17215043        -40.03458978        -83.98944532        -9.724848547         26.56878033         256.1364471               False
                   1                   3        -133.2067402         93.17215043         40.03458978        -83.98944532         9.724848547         26.56878033         256.1364471               False
                   1                   4        -146.1732049          80.2056857         65.96751924         142.3894453         9.724848547         7.119083232         330.8880954               False
                   1                   5         146.1732049         -80.2056857        -65.96751924         142.3894453         9.724848547        -7.119083232         330.8880954               False
                   1                   6         133.2067402        -93.17215043        -40.03458978        -83.98944532         9.724848547        -26.56878033         256.1364471               False
                   1                   7        -133.2067402         93.17215043         40.03458978        -83.98944532        -9.724848547        -26.56878033         256.1364471               False
                   1                   8        -146.1732049          80.2056857         65.96751924         142.3894453        -9.724848547        -7.119083232         330.8880954               False
                   2                   1          75.9808792        -67.01003701        -8.970842191         100.6954581         6.376970149         29.01959741         220.4155321               False
                   2                   2         84.48350607        -58.50741015        -25.97609592        -42.29545811         6.376970149         16.26565711          152.103371               False
                   2                   3        -84.48350607         58.50741015         25.97609592        -42.29545811        -6.376970149         16.26565711          152.103371               False
                   2                   4         -75.9808792         67.01003701         8.970842191         100.6954581        -6.376970149         29.01959741         220.4155321               False
                   2                   5          75.9808792        -67.01003701        -8.970842191         100.6954581        -6.376970149        -29.01959741         220.4155321               False
                   2                   6         84.48350607        -58.50741015        -25.97609592        -42.29545811        -6.376970149        -16.26565711          152.103371               False
                   2                   7        -84.48350607         58.50741015         25.97609592        -42.29545811         6.376970149        -16.26565711          152.103371               False
                   2                   8         -75.9808792         67.01003701         8.970842191         100.6954581         6.376970149        -29.01959741         220.4155321               False
                   3                   1         25.26991722          -22.881351        -2.388566222         53.27563411         1.845498378         10.24639239         102.9165104               False
                   3                   2         27.73058172        -20.42068649         -7.30989523         5.124365891         1.845498378         6.555395632         45.57467342               False
                   3                   3        -27.73058172         20.42068649          7.30989523         5.124365891        -1.845498378         6.555395632         45.57467342               False
                   3                   4        -25.26991722           22.881351         2.388566222         53.27563411        -1.845498378         10.24639239         102.9165104               False
                   3                   5         25.26991722          -22.881351        -2.388566222         53.27563411        -1.845498378        -10.24639239         102.9165104               False
                   3                   6         27.73058172        -20.42068649         -7.30989523         5.124365891        -1.845498378        -6.555395632         45.57467342               False
                   3                   7        -27.73058172         20.42068649          7.30989523         5.124365891         1.845498378        -6.555395632         45.57467342               False
                   3                   8        -25.26991722           22.881351         2.388566222         53.27563411         1.845498378        -10.24639239         102.9165104               False

***** Strain Data ******
          Element No         Integral No           Strain XX           Strain YY           Strain ZZ           Strain XY           Strain XZ           Strain YZ
                   1                   1     0.0009048817449    -0.0004965113877    -0.0004083703572      0.001762916942    -0.0001204028868     8.814103049e-05
                   1                   2     0.0008246131537    -0.0005767799789    -0.0002478331748     -0.001039869323    -0.0001204028868      0.000328946804
                   1                   3    -0.0008246131537     0.0005767799789     0.0002478331748     -0.001039869323     0.0001204028868      0.000328946804
                   1                   4    -0.0009048817449     0.0004965113877     0.0004083703572      0.001762916942     0.0001204028868     8.814103049e-05
                   1                   5     0.0009048817449    -0.0004965113877    -0.0004083703572      0.001762916942     0.0001204028868    -8.814103049e-05
                   1                   6     0.0008246131537    -0.0005767799789    -0.0002478331748     -0.001039869323     0.0001204028868     -0.000328946804
                   1                   7    -0.0008246131537     0.0005767799789     0.0002478331748     -0.001039869323    -0.0001204028868     -0.000328946804
                   1                   8    -0.0009048817449     0.0004965113877     0.0004083703572      0.001762916942    -0.0001204028868    -8.814103049e-05
                   2                   1     0.0004703578236    -0.0004148240386    -5.553378499e-05      0.001246705672     7.895296375e-05     0.0003592902537
                   2                   2     0.0005229931328    -0.0003621887295    -0.0001608044033    -0.0005236580528     7.895296375e-05     0.0002013843262
                   2                   3    -0.0005229931328     0.0003621887295     0.0001608044033    -0.0005236580528    -7.895296375e-05     0.0002013843262
                   2                   4    -0.0004703578236     0.0004148240386     5.553378499e-05      0.001246705672    -7.895296375e-05     0.0003592902537
                   2                   5     0.0004703578236    -0.0004148240386    -5.553378499e-05      0.001246705672    -7.895296375e-05    -0.0003592902537
                   2                   6     0.0005229931328    -0.0003621887295    -0.0001608044033    -0.0005236580528    -7.895296375e-05    -0.0002013843262
                   2                   7    -0.0005229931328     0.0003621887295     0.0001608044033    -0.0005236580528     7.895296375e-05    -0.0002013843262
                   2                   8    -0.0004703578236     0.0004148240386     5.553378499e-05      0.001246705672     7.895296375e-05    -0.0003592902537
                   3                   1     0.0001564328209    -0.0001416464586    -1.478636233e-05      0.000659603089     2.284902753e-05     0.0001268600962
                   3                   2     0.0001716655059    -0.0001264137735    -4.525173237e-05     6.344453008e-05     2.284902753e-05     8.116204116e-05
                   3                   3    -0.0001716655059     0.0001264137735     4.525173237e-05     6.344453008e-05    -2.284902753e-05     8.116204116e-05
                   3                   4    -0.0001564328209     0.0001416464586     1.478636233e-05      0.000659603089    -2.284902753e-05     0.0001268600962
                   3                   5     0.0001564328209    -0.0001416464586    -1.478636233e-05      0.000659603089    -2.284902753e-05    -0.0001268600962
                   3                   6     0.0001716655059    -0.0001264137735    -4.525173237e-05     6.344453008e-05    -2.284902753e-05    -8.116204116e-05
                   3                   7    -0.0001716655059     0.0001264137735     4.525173237e-05     6.344453008e-05     2.284902753e-05    -8.116204116e-05
                   3                   8    -0.0001564328209     0.0001416464586     1.478636233e-05      0.000659603089     2.284902753e-05    -0.0001268600962

***** Plastic Strain Data ******
          Element No         Integral No          PStrain XX          PStrain YY          PStrain ZZ          PStrain XY          PStrain XZ          PStrain YZ
                   1                   1                   0                   0                   0                   0                   0                   0
                   1                   2                   0                   0                   0                   0                   0                   0
                   1                   3                   0                   0                   0                   0                   0                   0
                   1                   4                   0                   0                   0                   0                   0                   0
                   1                   5                   0                   0                   0                   0                   0                   0
                   1                   6                   0                   0                   0                   0                   0                   0
                   1                   7                   0                   0                   0                   0                   0                   0
                   1                   8                   0                   0                   0                   0                   0                   0
                   2                   1                   0                   0                   0                   0                   0                   0
                   2                   2                   0                   0                   0                   0                   0                   0
                   2                   3                   0                   0                   0                   0                   0                   0
                   2                   4                   0                   0                   0                   0                   0                   0
                   2                   5                   0                   0                   0                   0                   0                   0
                   2                   6                   0                   0                   0                   0                   0                   0
                   2                   7                   0                   0                   0                   0                   0                   0
                   2                   8                   0                   0                   0                   0                   0                   0
                   3                   1                   0                   0                   0                   0                   0                   0
                   3                   2                   0                   0                   0                   0                   0                   0
                   3                   3                   0                   0                   0                   0                   0                   0
                   3                   4                   0                   0                   0                   0                   0                   0
                   3                   5                   0                   0                   0                   0                   0                   0
                   3                   6                   0                   0                   0                   0                   0                   0
                   3                   7                   0                   0                   0                   0                   0                   0
                   3                   8                   0                   0                   0                   0                   0                   0

***** Reaction Force Data ******
              NodeNo           Magnitude             X Force             Y Force             Z Force----------------------------------------------------------------------------------------------------
                   1         45.10497998               -43.8                -7.3         7.920177954
                   2     1.540631174e-13    -1.278976924e-13    -5.684341886e-14    -6.439293543e-14
                   3     3.364292328e-13     2.255973186e-13     2.495781359e-13    -1.110223025e-15
                   4      3.16237226e-13     3.114175584e-14     2.486899575e-13     1.928457394e-13
                   5         45.10497998               -43.8                -7.3        -7.920177954
                   6     5.967342898e-14    -3.552713679e-15     5.595524044e-14     2.042810365e-14
                   7     4.464460102e-13     2.060573934e-13       3.4283687e-13    -1.982858322e-13
                   8     1.508167184e-13     8.659739592e-15     9.237055565e-14    -1.189048859e-13
                   9         45.10497998                43.8                -7.3        -7.920177954
                  10     1.033345112e-13     7.105427358e-15     1.030286967e-13    -3.552713679e-15
                  11     3.063888095e-13    -5.684341886e-14    -2.078337502e-13     2.178257574e-13
                  12     5.316322503e-13    -2.358668816e-13    -4.538591725e-13     1.449534937e-13
                  13         45.10497998                43.8                -7.3         7.920177954
                  14     1.605153676e-13     1.385558335e-13     7.727152251e-14    -2.442490654e-14
                  15     2.065240439e-13     2.007283229e-13     6.217248938e-15    -4.818367927e-14
                  16     3.630662755e-13    -1.345590306e-13    -3.339550858e-13    -4.674385878e-14

*Increment 74

***** Displacement Data ******
              NodeNo           Magnitude      X Displacement      Y Displacement      Z Displacement
----------------------------------------------------------------------------------------------------
                   1                   0                   0                   0                   0
                   2      0.003765672716      0.002460534574      0.002827010765    -0.0003661567241
                   3       0.01046987807      0.004014716999      0.009668738528    -0.0001260531906
                   4        0.0191340391        0.0045380779       0.01858800962    -5.656710683e-05
                   5                   0                   0                   0                   0
                   6      0.003765672716      0.002460534574      0.002827010765     0.0003661567241
                   7       0.01046987807      0.004014716999      0.009668738528     0.0001260531906
                   8        0.0191340391        0.0045380779       0.01858800962     5.656710683e-05
                   9                   0                   0                   0                   0
                  10      0.003765672716     -0.002460534574      0.002827010765     0.0003661567241
                  11       0.01046987807     -0.004014716999      0.009668738528     0.0001260531906
                  12        0.0191340391       -0.0045380779       0.01858800962     5.656710683e-05
                  13                   0                   0                   0                   0
                  14      0.003765672716     -0.002460534574      0.002827010765    -0.0003661567241
                  15       0.01046987807     -0.004014716999      0.009668738528    -0.0001260531906
                  16        0.0191340391       -0.0045380779       0.01858800962    -5.656710683e-05

***** Stress Data ******
          Element No         Integral No           Stress XX           Stress YY           Stress ZZ           Stress XY           Stress XZ           Stress YZ               Mises            YieldFlg
                   1                   1         148.1755776        -81.30439373        -66.87118389         144.3399857         -9.85806565          7.21660492          335.420809               False
                   1                   2         135.0314901        -94.44848126        -40.58300882        -85.13998567         -9.85806565         26.93273622         259.6451655               False
                   1                   3        -135.0314901         94.44848126         40.58300882        -85.13998567          9.85806565         26.93273622         259.6451655               False
                   1                   4        -148.1755776         81.30439373         66.87118389         144.3399857          9.85806565          7.21660492          335.420809               False
                   1                   5         148.1755776        -81.30439373        -66.87118389         144.3399857          9.85806565         -7.21660492          335.420809               False
                   1                   6         135.0314901        -94.44848126        -40.58300882        -85.13998567          9.85806565        -26.93273622         259.6451655               False
                   1                   7        -135.0314901         94.44848126         40.58300882        -85.13998567         -9.85806565        -26.93273622         259.6451655               False
                   1                   8        -148.1755776         81.30439373         66.87118389         144.3399857         -9.85806565         -7.21660492          335.420809               False
                   2                   1         77.02171316        -67.92798272         -9.09373044         102.0748479         6.464325904         29.41712614          223.434923               False
                   2                   2         85.64081437        -59.30888152        -26.33193285        -42.87484794         6.464325904         16.48847433         154.1869788               False
                   2                   3        -85.64081437         59.30888152         26.33193285        -42.87484794        -6.464325904         16.48847433         154.1869788               False
                   2                   4        -77.02171316         67.92798272          9.09373044         102.0748479        -6.464325904         29.41712614          223.434923               False
                   2                   5         77.02171316        -67.92798272         -9.09373044         102.0748479        -6.464325904        -29.41712614          223.434923               False
                   2                   6         85.64081437        -59.30888152        -26.33193285        -42.87484794        -6.464325904        -16.48847433         154.1869788               False
                   2                   7        -85.64081437         59.30888152         26.33193285        -42.87484794         6.464325904        -16.48847433         154.1869788               False
                   2                   8        -77.02171316         67.92798272          9.09373044         102.0748479         6.464325904        -29.41712614          223.434923               False
                   3                   1         25.61608047        -23.19479416        -2.421286308         54.00543732         1.870779177         10.38675393         104.3263256               False
                   3                   2         28.11045271        -20.70042193        -7.410030781         5.194562684         1.870779177         6.645195572         46.19898402               False
                   3                   3        -28.11045271         20.70042193         7.410030781         5.194562684        -1.870779177         6.645195572         46.19898402               False
                   3                   4        -25.61608047         23.19479416         2.421286308         54.00543732        -1.870779177         10.38675393         104.3263256               False
                   3                   5         25.61608047        -23.19479416        -2.421286308         54.00543732        -1.870779177        -10.38675393         104.3263256               False
                   3                   6         28.11045271        -20.70042193        -7.410030781         5.194562684        -1.870779177        -6.645195572         46.19898402               False
                   3                   7        -28.11045271         20.70042193         7.410030781         5.194562684         1.870779177        -6.645195572         46.19898402               False
                   3                   8        -25.61608047         23.19479416         2.421286308         54.00543732         1.870779177        -10.38675393         104.3263256               False

***** Strain Data ******
          Element No         Integral No           Strain XX           Strain YY           Strain ZZ           Strain XY           Strain XZ           Strain YZ
                   1                   1     0.0009172773852    -0.0005033129136    -0.0004139644717      0.001787066489    -0.0001220522414     8.934844187e-05
                   1                   2     0.0008359092243    -0.0005846810745    -0.0002512281498     -0.001054114108    -0.0001220522414     0.0003334529246
                   1                   3    -0.0008359092243     0.0005846810745     0.0002512281498     -0.001054114108     0.0001220522414     0.0003334529246
                   1                   4    -0.0009172773852     0.0005033129136     0.0004139644717      0.001787066489     0.0001220522414     8.934844187e-05
                   1                   5     0.0009172773852    -0.0005033129136    -0.0004139644717      0.001787066489     0.0001220522414    -8.934844187e-05
                   1                   6     0.0008359092243    -0.0005846810745    -0.0002512281498     -0.001054114108     0.0001220522414    -0.0003334529246
                   1                   7    -0.0008359092243     0.0005846810745     0.0002512281498     -0.001054114108    -0.0001220522414    -0.0003334529246
                   1                   8    -0.0009172773852     0.0005033129136     0.0004139644717      0.001787066489    -0.0001220522414    -8.934844187e-05
                   2                   1     0.0004768010815    -0.0004205065597    -5.629452177e-05      0.001263783832     8.003451119e-05     0.0003642120379
                   2                   2     0.0005301574223    -0.0003671502189    -0.0001630072034    -0.0005308314507     8.003451119e-05     0.0002041430156
                   2                   3    -0.0005301574223     0.0003671502189     0.0001630072034    -0.0005308314507    -8.003451119e-05     0.0002041430156
                   2                   4    -0.0004768010815     0.0004205065597     5.629452177e-05      0.001263783832    -8.003451119e-05     0.0003642120379
                   2                   5     0.0004768010815    -0.0004205065597    -5.629452177e-05      0.001263783832    -8.003451119e-05    -0.0003642120379
                   2                   6     0.0005301574223    -0.0003671502189    -0.0001630072034    -0.0005308314507    -8.003451119e-05    -0.0002041430156
                   2                   7    -0.0005301574223     0.0003671502189     0.0001630072034    -0.0005308314507     8.003451119e-05    -0.0002041430156
                   2                   8    -0.0004768010815     0.0004205065597     5.629452177e-05      0.001263783832     8.003451119e-05    -0.0003642120379
                   3                   1     0.0001585757362     -0.000143586821    -1.498891524e-05     0.0006686387477     2.316202791e-05     0.0001285979058
                   3                   2     0.0001740170882    -0.0001281454691    -4.587161912e-05     6.431363323e-05     2.316202791e-05     8.227384994e-05
                   3                   3    -0.0001740170882     0.0001281454691     4.587161912e-05     6.431363323e-05    -2.316202791e-05     8.227384994e-05
                   3                   4    -0.0001585757362      0.000143586821     1.498891524e-05     0.0006686387477    -2.316202791e-05     0.0001285979058
                   3                   5     0.0001585757362     -0.000143586821    -1.498891524e-05     0.0006686387477    -2.316202791e-05    -0.0001285979058
                   3                   6     0.0001740170882    -0.0001281454691    -4.587161912e-05     6.431363323e-05    -2.316202791e-05    -8.227384994e-05
                   3                   7    -0.0001740170882     0.0001281454691     4.587161912e-05     6.431363323e-05     2.316202791e-05    -8.227384994e-05
                   3                   8    -0.0001585757362      0.000143586821     1.498891524e-05     0.0006686387477     2.316202791e-05    -0.0001285979058

***** Plastic Strain Data ******
          Element No         Integral No          PStrain XX          PStrain YY          PStrain ZZ          PStrain XY          PStrain XZ          PStrain YZ
                   1                   1                   0                   0                   0                   0                   0                   0
                   1                   2                   0                   0                   0                   0                   0                   0
                   1                   3                   0                   0                   0                   0                   0                   0
                   1                   4                   0                   0                   0                   0                   0                   0
                   1                   5                   0                   0                   0                   0                   0                   0
                   1                   6                   0                   0                   0                   0                   0                   0
                   1                   7                   0                   0                   0                   0                   0                   0
                   1                   8                   0                   0                   0                   0                   0                   0
                   2                   1                   0                   0                   0                   0                   0                   0
                   2                   2                   0                   0                   0                   0                   0                   0
                   2                   3                   0                   0                   0                   0                   0                   0
                   2                   4                   0                   0                   0                   0                   0                   0
                   2                   5                   0                   0                   0                   0                   0                   0
                   2                   6                   0                   0                   0                   0                   0                   0
                   2                   7                   0                   0                   0                   0                   0                   0
                   2                   8                   0                   0                   0                   0                   0                   0
                   3                   1                   0                   0                   0                   0                   0                   0
                   3                   2                   0                   0                   0                   0                   0                   0
                   3                   3                   0                   0                   0                   0                   0                   0
                   3                   4                   0                   0                   0                   0                   0                   0
                   3                   5                   0                   0                   0                   0                   0                   0
                   3                   6                   0                   0                   0                   0                   0                   0
                   3                   7                   0                   0                   0                   0                   0                   0
                   3                   8                   0                   0                   0                   0                   0                   0

***** Reaction Force Data ******
              NodeNo           Magnitude             X Force             Y Force             Z Force----------------------------------------------------------------------------------------------------
                   1         45.72285642               -44.4                -7.4         8.028673543
                   2     1.613120052e-13    -1.314504061e-13    -5.329070518e-14     -7.68274333e-14
                   3     4.503380454e-13     3.410605132e-13     2.939870569e-13     7.327471963e-15
                   4     2.749167964e-13     7.144285163e-14     1.696420782e-13     2.041977698e-13
                   5         45.72285642               -44.4                -7.4        -8.028673543
                   6     6.004408008e-14    -3.552713679e-15     5.151434834e-14     3.064215548e-14
                   7     5.030878584e-13     2.646771691e-13     3.677058658e-13    -2.187139359e-13
                   8     1.480325353e-13     2.109423747e-14     5.506706202e-14    -1.357802759e-13
                   9         45.72285642                44.4                -7.4        -8.028673543
                  10     1.177933549e-13     1.776356839e-14     1.154631946e-13    -1.509903313e-14
                  11     2.724972247e-13    -7.993605777e-14    -1.394440119e-13     2.200462035e-13
                  12     6.385230418e-13    -3.396172232e-13    -5.169198403e-13     1.586369924e-13
                  13         45.72285642                44.4                -7.4         8.028673543
                  14     1.652322216e-13     1.492139745e-13     7.016609516e-14    -1.065814104e-14
                  15     2.376861743e-13     2.238209618e-13     6.483702464e-14    -4.685141164e-14
                  16     4.086921192e-13    -2.045030811e-13    -3.508304758e-13    -4.610548054e-14

*Increment 75

***** Displacement Data ******
              NodeNo           Magnitude      X Displacement      Y Displacement      Z Displacement
----------------------------------------------------------------------------------------------------
                   1                   0                   0                   0                   0
                   2      0.003816560185      0.002493785041      0.002865213613     -0.000371104788
                   3        0.0106113629      0.004068969931      0.009799397157    -0.0001277566121
                   4        0.0193926072      0.004599403277       0.01883919894    -5.733152719e-05
                   5                   0                   0                   0                   0
                   6      0.003816560185      0.002493785041      0.002865213613      0.000371104788
                   7        0.0106113629      0.004068969931      0.009799397157     0.0001277566121
                   8        0.0193926072      0.004599403277       0.01883919894     5.733152719e-05
                   9                   0                   0                   0                   0
                  10      0.003816560185     -0.002493785041      0.002865213613      0.000371104788
                  11        0.0106113629     -0.004068969931      0.009799397157     0.0001277566121
                  12        0.0193926072     -0.004599403277       0.01883919894     5.733152719e-05
                  13                   0                   0                   0                   0
                  14      0.003816560185     -0.002493785041      0.002865213613     -0.000371104788
                  15        0.0106113629     -0.004068969931      0.009799397157    -0.0001277566121
                  16        0.0193926072     -0.004599403277       0.01883919894    -5.733152719e-05

***** Stress Data ******
          Element No         Integral No           Stress XX           Stress YY           Stress ZZ           Stress XY           Stress XZ           Stress YZ               Mises            YieldFlg
                   1                   1         150.1779503        -82.40310175        -67.77484853          146.290526        -9.991282753         7.314126608         339.9535227               False
                   1                   2         136.8562399        -95.72481209        -41.13142786        -86.29052602        -9.991282753         27.29669212          263.153884               False
                   1                   3        -136.8562399         95.72481209         41.13142786        -86.29052602         9.991282753         27.29669212          263.153884               False
                   1                   4        -150.1779503         82.40310175         67.77484853          146.290526         9.991282753         7.314126608         339.9535227               False
                   1                   5         150.1779503        -82.40310175        -67.77484853          146.290526         9.991282753        -7.314126608         339.9535227               False
                   1                   6         136.8562399        -95.72481209        -41.13142786        -86.29052602         9.991282753        -27.29669212          263.153884               False
                   1                   7        -136.8562399         95.72481209         41.13142786        -86.29052602        -9.991282753        -27.29669212          263.153884               False
                   1                   8        -150.1779503         82.40310175         67.77484853          146.290526        -9.991282753        -7.314126608         339.9535227               False
                   2                   1         78.06254713        -68.84592844         -9.21661869         103.4542378          6.55168166         29.81465487         226.4543138               False
                   2                   2         86.79812267        -60.11035289        -26.68776978        -43.45423778          6.55168166         16.71129155         156.2705867               False
                   2                   3        -86.79812267         60.11035289         26.68776978        -43.45423778         -6.55168166         16.71129155         156.2705867               False
                   2                   4        -78.06254713         68.84592844          9.21661869         103.4542378         -6.55168166         29.81465487         226.4543138               False
                   2                   5         78.06254713        -68.84592844         -9.21661869         103.4542378         -6.55168166        -29.81465487         226.4543138               False
                   2                   6         86.79812267        -60.11035289        -26.68776978        -43.45423778         -6.55168166        -16.71129155         156.2705867               False
                   2                   7        -86.79812267         60.11035289         26.68776978        -43.45423778          6.55168166        -16.71129155         156.2705867               False
                   2                   8        -78.06254713         68.84592844          9.21661869         103.4542378          6.55168166        -29.81465487         226.4543138               False
                   3                   1         25.96224372        -23.50823733        -2.454006393         54.73524052         1.896059977         10.52711547         105.7361408               False
                   3                   2         28.49032369        -20.98015736        -7.510166332         5.264759477         1.896059977         6.734995513         46.82329461               False
                   3                   3        -28.49032369         20.98015736         7.510166332         5.264759477        -1.896059977         6.734995513         46.82329461               False
                   3                   4        -25.96224372         23.50823733         2.454006393         54.73524052        -1.896059977         10.52711547         105.7361408               False
                   3                   5         25.96224372        -23.50823733        -2.454006393         54.73524052        -1.896059977        -10.52711547         105.7361408               False
                   3                   6         28.49032369        -20.98015736        -7.510166332         5.264759477        -1.896059977        -6.734995513         46.82329461               False
                   3                   7        -28.49032369         20.98015736         7.510166332         5.264759477         1.896059977        -6.734995513         46.82329461               False
                   3                   8        -25.96224372         23.50823733         2.454006393         54.73524052         1.896059977        -10.52711547         105.7361408               False

***** Strain Data ******
          Element No         Integral No           Strain XX           Strain YY           Strain ZZ           Strain XY           Strain XZ           Strain YZ
                   1                   1     0.0009296730256    -0.0005101144394    -0.0004195585862      0.001811216036     -0.000123701596     9.055585325e-05
                   1                   2     0.0008472052949    -0.0005925821701    -0.0002546231248     -0.001068358894     -0.000123701596     0.0003379590452
                   1                   3    -0.0008472052949     0.0005925821701     0.0002546231248     -0.001068358894      0.000123701596     0.0003379590452
                   1                   4    -0.0009296730256     0.0005101144394     0.0004195585862      0.001811216036      0.000123701596     9.055585325e-05
                   1                   5     0.0009296730256    -0.0005101144394    -0.0004195585862      0.001811216036      0.000123701596    -9.055585325e-05
                   1                   6     0.0008472052949    -0.0005925821701    -0.0002546231248     -0.001068358894      0.000123701596    -0.0003379590452
                   1                   7    -0.0008472052949     0.0005925821701     0.0002546231248     -0.001068358894     -0.000123701596    -0.0003379590452
                   1                   8    -0.0009296730256     0.0005101144394     0.0004195585862      0.001811216036     -0.000123701596    -9.055585325e-05
                   2                   1     0.0004832443394    -0.0004261890808    -5.705525856e-05      0.001280861992     8.111605864e-05     0.0003691338222
                   2                   2     0.0005373217118    -0.0003721117084    -0.0001652100034    -0.0005380048487     8.111605864e-05      0.000206901705
                   2                   3    -0.0005373217118     0.0003721117084     0.0001652100034    -0.0005380048487    -8.111605864e-05      0.000206901705
                   2                   4    -0.0004832443394     0.0004261890808     5.705525856e-05      0.001280861992    -8.111605864e-05     0.0003691338222
                   2                   5     0.0004832443394    -0.0004261890808    -5.705525856e-05      0.001280861992    -8.111605864e-05    -0.0003691338222
                   2                   6     0.0005373217118    -0.0003721117084    -0.0001652100034    -0.0005380048487    -8.111605864e-05     -0.000206901705
                   2                   7    -0.0005373217118     0.0003721117084     0.0001652100034    -0.0005380048487     8.111605864e-05     -0.000206901705
                   2                   8    -0.0004832443394     0.0004261890808     5.705525856e-05      0.001280861992     8.111605864e-05    -0.0003691338222
                   3                   1     0.0001607186516    -0.0001455271835    -1.519146815e-05     0.0006776744065     2.347502829e-05     0.0001303357153
                   3                   2     0.0001763686705    -0.0001298771646    -4.649150586e-05     6.518273638e-05     2.347502829e-05     8.338565873e-05
                   3                   3    -0.0001763686705     0.0001298771646     4.649150586e-05     6.518273638e-05    -2.347502829e-05     8.338565873e-05
                   3                   4    -0.0001607186516     0.0001455271835     1.519146815e-05     0.0006776744065    -2.347502829e-05     0.0001303357153
                   3                   5     0.0001607186516    -0.0001455271835    -1.519146815e-05     0.0006776744065    -2.347502829e-05    -0.0001303357153
                   3                   6     0.0001763686705    -0.0001298771646    -4.649150586e-05     6.518273638e-05    -2.347502829e-05    -8.338565873e-05
                   3                   7    -0.0001763686705     0.0001298771646     4.649150586e-05     6.518273638e-05     2.347502829e-05    -8.338565873e-05
                   3                   8    -0.0001607186516     0.0001455271835     1.519146815e-05     0.0006776744065     2.347502829e-05    -0.0001303357153

***** Plastic Strain Data ******
          Element No         Integral No          PStrain XX          PStrain YY          PStrain ZZ          PStrain XY          PStrain XZ          PStrain YZ
                   1                   1                   0                   0                   0                   0                   0                   0
                   1                   2                   0                   0                   0                   0                   0                   0
                   1                   3                   0                   0                   0                   0                   0                   0
                   1                   4                   0                   0                   0                   0                   0                   0
                   1                   5                   0                   0                   0                   0                   0                   0
                   1                   6                   0                   0                   0                   0                   0                   0
                   1                   7                   0                   0                   0                   0                   0                   0
                   1                   8                   0                   0                   0                   0                   0                   0
                   2                   1                   0                   0                   0                   0                   0                   0
                   2                   2                   0                   0                   0                   0                   0                   0
                   2                   3                   0                   0                   0                   0                   0                   0
                   2                   4                   0                   0                   0                   0                   0                   0
                   2                   5                   0                   0                   0                   0                   0                   0
                   2                   6                   0                   0                   0                   0                   0                   0
                   2                   7                   0                   0                   0                   0                   0                   0
                   2                   8                   0                   0                   0                   0                   0                   0
                   3                   1                   0                   0                   0                   0                   0                   0
                   3                   2                   0                   0                   0                   0                   0                   0
                   3                   3                   0                   0                   0                   0                   0                   0
                   3                   4                   0                   0                   0                   0                   0                   0
                   3                   5                   0                   0                   0                   0                   0                   0
                   3                   6                   0                   0                   0                   0                   0                   0
                   3                   7                   0                   0                   0                   0                   0                   0
                   3                   8                   0                   0                   0                   0                   0                   0

***** Reaction Force Data ******
              NodeNo           Magnitude             X Force             Y Force             Z Force----------------------------------------------------------------------------------------------------
                   1         46.34073285                 -45                -7.5         8.137169131
                   2     1.733638049e-13    -1.563194019e-13    -2.753353101e-14    -6.972200595e-14
                   3     4.323917186e-13     3.250733016e-13     2.851052727e-13    -2.220446049e-15
                   4     2.303999595e-13     4.152234112e-14     1.350031198e-13     1.820280038e-13
                   5         46.34073285                 -45                -7.5        -8.137169131
                   6     7.267476161e-14    -2.486899575e-14      6.30606678e-14     2.620126338e-14
                   7     4.399471914e-13     2.291500323e-13     3.357314426e-13    -1.683098105e-13
                   8     1.681209172e-13    -2.153832668e-14     9.414691249e-14    -1.376121439e-13
                   9         46.34073285                  45                -7.5        -8.137169131
                  10     8.210727919e-14     1.421085472e-14     8.082423619e-14     2.664535259e-15
                  11     2.516669656e-13    -2.842170943e-14    -1.314504061e-13     2.127187315e-13
                  12      5.58882946e-13    -3.045896868e-13    -4.449773883e-13     1.468686284e-13
                  13         46.34073285                  45                -7.5         8.137169131
                  14     1.654707622e-13     1.492139745e-13     6.483702464e-14    -3.019806627e-14
                  15     2.295855316e-13     2.238209618e-13     2.753353101e-14    -4.307665336e-14
                  16     3.695589003e-13    -1.694200336e-13    -3.250733016e-13    -4.688263666e-14

*Increment 76

***** Displacement Data ******
              NodeNo           Magnitude      X Displacement      Y Displacement      Z Displacement
----------------------------------------------------------------------------------------------------
                   1                   0                   0                   0                   0
                   2      0.003867447654      0.002527035509      0.002903416461    -0.0003760528518
                   3       0.01075284774      0.004123222864      0.009930055786    -0.0001294600335
                   4        0.0196511753      0.004660728654       0.01909038826    -5.809594755e-05
                   5                   0                   0                   0                   0
                   6      0.003867447654      0.002527035509      0.002903416461     0.0003760528518
                   7       0.01075284774      0.004123222864      0.009930055786     0.0001294600335
                   8        0.0196511753      0.004660728654       0.01909038826     5.809594755e-05
                   9                   0                   0                   0                   0
                  10      0.003867447654     -0.002527035509      0.002903416461     0.0003760528518
                  11       0.01075284774     -0.004123222864      0.009930055786     0.0001294600335
                  12        0.0196511753     -0.004660728654       0.01909038826     5.809594755e-05
                  13                   0                   0                   0                   0
                  14      0.003867447654     -0.002527035509      0.002903416461    -0.0003760528518
                  15       0.01075284774     -0.004123222864      0.009930055786    -0.0001294600335
                  16        0.0196511753     -0.004660728654       0.01909038826    -5.809594755e-05

***** Stress Data ******
          Element No         Integral No           Stress XX           Stress YY           Stress ZZ           Stress XY           Stress XZ           Stress YZ               Mises            YieldFlg
                   1                   1          152.180323        -83.50180977        -68.67851318         148.2410664        -10.12449986         7.411648296         344.4862363               False
                   1                   2         138.6809898        -97.00114292         -41.6798469        -87.44106637        -10.12449986         27.66064801         266.6626025               False
                   1                   3        -138.6809898         97.00114292          41.6798469        -87.44106637         10.12449986         27.66064801         266.6626025               False
                   1                   4         -152.180323         83.50180977         68.67851318         148.2410664         10.12449986         7.411648296         344.4862363               False
                   1                   5          152.180323        -83.50180977        -68.67851318         148.2410664         10.12449986        -7.411648296         344.4862363               False
                   1                   6         138.6809898        -97.00114292         -41.6798469        -87.44106637         10.12449986        -27.66064801         266.6626025               False
                   1                   7        -138.6809898         97.00114292          41.6798469        -87.44106637        -10.12449986        -27.66064801         266.6626025               False
                   1                   8         -152.180323         83.50180977         68.67851318         148.2410664        -10.12449986        -7.411648296         344.4862363               False
                   2                   1         79.10338109        -69.76387415        -9.339506939         104.8336276         6.639037415         30.21218361         229.4737047               False
                   2                   2         87.95543097        -60.91182426        -27.04360671        -44.03362762         6.639037415         16.93410877         158.3541945               False
                   2                   3        -87.95543097         60.91182426         27.04360671        -44.03362762        -6.639037415         16.93410877         158.3541945               False
                   2                   4        -79.10338109         69.76387415         9.339506939         104.8336276        -6.639037415         30.21218361         229.4737047               False
                   2                   5         79.10338109        -69.76387415        -9.339506939         104.8336276        -6.639037415        -30.21218361         229.4737047               False
                   2                   6         87.95543097        -60.91182426        -27.04360671        -44.03362762        -6.639037415        -16.93410877         158.3541945               False
                   2                   7        -87.95543097         60.91182426         27.04360671        -44.03362762         6.639037415        -16.93410877         158.3541945               False
                   2                   8        -79.10338109         69.76387415         9.339506939         104.8336276         6.639037415        -30.21218361         229.4737047               False
                   3                   1         26.30840697        -23.82168049        -2.486726478         55.46504373         1.921340777         10.66747701          107.145956               False
                   3                   2         28.87019467        -21.25989279        -7.610301883          5.33495627         1.921340777         6.824795453         47.44760521               False
                   3                   3        -28.87019467         21.25989279         7.610301883          5.33495627        -1.921340777         6.824795453         47.44760521               False
                   3                   4        -26.30840697         23.82168049         2.486726478         55.46504373        -1.921340777         10.66747701          107.145956               False
                   3                   5         26.30840697        -23.82168049        -2.486726478         55.46504373        -1.921340777        -10.66747701          107.145956               False
                   3                   6         28.87019467        -21.25989279        -7.610301883          5.33495627        -1.921340777        -6.824795453         47.44760521               False
                   3                   7        -28.87019467         21.25989279         7.610301883          5.33495627         1.921340777        -6.824795453         47.44760521               False
                   3                   8        -26.30840697         23.82168049         2.486726478         55.46504373         1.921340777        -10.66747701          107.145956               False

***** Strain Data ******
          Element No         Integral No           Strain XX           Strain YY           Strain ZZ           Strain XY           Strain XZ           Strain YZ
                   1                   1     0.0009420686659    -0.0005169159653    -0.0004251527006      0.001835365584    -0.0001253509506     9.176326462e-05
                   1                   2     0.0008585013655    -0.0006004832657    -0.0002580180998     -0.001082603679    -0.0001253509506     0.0003424651658
                   1                   3    -0.0008585013655     0.0006004832657     0.0002580180998     -0.001082603679     0.0001253509506     0.0003424651658
                   1                   4    -0.0009420686659     0.0005169159653     0.0004251527006      0.001835365584     0.0001253509506     9.176326462e-05
                   1                   5     0.0009420686659    -0.0005169159653    -0.0004251527006      0.001835365584     0.0001253509506    -9.176326462e-05
                   1                   6     0.0008585013655    -0.0006004832657    -0.0002580180998     -0.001082603679     0.0001253509506    -0.0003424651658
                   1                   7    -0.0008585013655     0.0006004832657     0.0002580180998     -0.001082603679    -0.0001253509506    -0.0003424651658
                   1                   8    -0.0009420686659     0.0005169159653     0.0004251527006      0.001835365584    -0.0001253509506    -9.176326462e-05
                   2                   1     0.0004896875972    -0.0004318716019    -5.781599534e-05      0.001297940151     8.219760609e-05     0.0003740556065
                   2                   2     0.0005444860013    -0.0003770731978    -0.0001674128035    -0.0005451782467     8.219760609e-05     0.0002096603944
                   2                   3    -0.0005444860013     0.0003770731978     0.0001674128035    -0.0005451782467    -8.219760609e-05     0.0002096603944
                   2                   4    -0.0004896875972     0.0004318716019     5.781599534e-05      0.001297940151    -8.219760609e-05     0.0003740556065
                   2                   5     0.0004896875972    -0.0004318716019    -5.781599534e-05      0.001297940151    -8.219760609e-05    -0.0003740556065
                   2                   6     0.0005444860013    -0.0003770731978    -0.0001674128035    -0.0005451782467    -8.219760609e-05    -0.0002096603944
                   2                   7    -0.0005444860013     0.0003770731978     0.0001674128035    -0.0005451782467     8.219760609e-05    -0.0002096603944
                   2                   8    -0.0004896875972     0.0004318716019     5.781599534e-05      0.001297940151     8.219760609e-05    -0.0003740556065
                   3                   1      0.000162861567    -0.0001474675459    -1.539402105e-05     0.0006867100652     2.378802867e-05     0.0001320735248
                   3                   2     0.0001787202527    -0.0001316088601    -4.711139261e-05     6.605183953e-05     2.378802867e-05     8.449746751e-05
                   3                   3    -0.0001787202527     0.0001316088601     4.711139261e-05     6.605183953e-05    -2.378802867e-05     8.449746751e-05
                   3                   4     -0.000162861567     0.0001474675459     1.539402105e-05     0.0006867100652    -2.378802867e-05     0.0001320735248
                   3                   5      0.000162861567    -0.0001474675459    -1.539402105e-05     0.0006867100652    -2.378802867e-05    -0.0001320735248
                   3                   6     0.0001787202527    -0.0001316088601    -4.711139261e-05     6.605183953e-05    -2.378802867e-05    -8.449746751e-05
                   3                   7    -0.0001787202527     0.0001316088601     4.711139261e-05     6.605183953e-05     2.378802867e-05    -8.449746751e-05
                   3                   8     -0.000162861567     0.0001474675459     1.539402105e-05     0.0006867100652     2.378802867e-05    -0.0001320735248

***** Plastic Strain Data ******
          Element No         Integral No          PStrain XX          PStrain YY          PStrain ZZ          PStrain XY          PStrain XZ          PStrain YZ
                   1                   1                   0                   0                   0                   0                   0                   0
                   1                   2                   0                   0                   0                   0                   0                   0
                   1                   3                   0                   0                   0                   0                   0                   0
                   1                   4                   0                   0                   0                   0                   0                   0
                   1                   5                   0                   0                   0                   0                   0                   0
                   1                   6                   0                   0                   0                   0                   0                   0
                   1                   7                   0                   0                   0                   0                   0                   0
                   1                   8                   0                   0                   0                   0                   0                   0
                   2                   1                   0                   0                   0                   0                   0                   0
                   2                   2                   0                   0                   0                   0                   0                   0
                   2                   3                   0                   0                   0                   0                   0                   0
                   2                   4                   0                   0                   0                   0                   0                   0
                   2                   5                   0                   0                   0                   0                   0                   0
                   2                   6                   0                   0                   0                   0                   0                   0
                   2                   7                   0                   0                   0                   0                   0                   0
                   2                   8                   0                   0                   0                   0                   0                   0
                   3                   1                   0                   0                   0                   0                   0                   0
                   3                   2                   0                   0                   0                   0                   0                   0
                   3                   3                   0                   0                   0                   0                   0                   0
                   3                   4                   0                   0                   0                   0                   0                   0
                   3                   5                   0                   0                   0                   0                   0                   0
                   3                   6                   0                   0                   0                   0                   0                   0
                   3                   7                   0                   0                   0                   0                   0                   0
                   3                   8                   0                   0                   0                   0                   0                   0

***** Reaction Force Data ******
              NodeNo           Magnitude             X Force             Y Force             Z Force----------------------------------------------------------------------------------------------------
                   1         46.95860929               -45.6                -7.6         8.245664719
                   2     1.752392003e-13    -1.527666882e-13    -3.552713679e-14    -7.815970093e-14
                   3      2.74272099e-13     2.309263891e-13     1.447730824e-13    -3.064215548e-14
                   4     2.212009084e-13     4.579669977e-14     1.625366508e-13     1.428787644e-13
                   5         46.95860929               -45.6                -7.6        -8.245664719
                   6     7.425192837e-14    -4.263256415e-14     5.950795412e-14     1.243449788e-14
                   7     3.686465419e-13      2.32702746e-13     2.406963517e-13    -1.543210004e-13
                   8     1.179839733e-13    -4.773959006e-14     2.842170943e-14    -1.040834086e-13
                   9         46.95860929                45.6                -7.6        -8.245664719
                  10     8.102407329e-14    -3.552713679e-15     8.082423619e-14     4.440892099e-15
                  11      2.21332142e-13    -1.243449788e-14    -1.145750161e-13     1.889599588e-13
                  12     4.528639815e-13    -2.181033132e-13    -3.801403636e-13      1.14061538e-13
                  13         46.95860929                45.6                -7.6         8.245664719
                  14     1.637045591e-13     1.456612608e-13     7.105427358e-14    -2.309263891e-14
                  15     2.721469842e-13     2.362554596e-13     1.323385845e-13      2.70894418e-14
                  16     2.736976886e-13    -1.423305918e-13     -2.32702746e-13    -2.240221897e-14

*Increment 77

***** Displacement Data ******
              NodeNo           Magnitude      X Displacement      Y Displacement      Z Displacement
----------------------------------------------------------------------------------------------------
                   1                   0                   0                   0                   0
                   2      0.003918335123      0.002560285976      0.002941619309    -0.0003810009157
                   3       0.01089433258      0.004177475796       0.01006071441     -0.000131163455
                   4       0.01990974339      0.004722054031       0.01934157758    -5.886036791e-05
                   5                   0                   0                   0                   0
                   6      0.003918335123      0.002560285976      0.002941619309     0.0003810009157
                   7       0.01089433258      0.004177475796       0.01006071441      0.000131163455
                   8       0.01990974339      0.004722054031       0.01934157758     5.886036791e-05
                   9                   0                   0                   0                   0
                  10      0.003918335123     -0.002560285976      0.002941619309     0.0003810009157
                  11       0.01089433258     -0.004177475796       0.01006071441      0.000131163455
                  12       0.01990974339     -0.004722054031       0.01934157758     5.886036791e-05
                  13                   0                   0                   0                   0
                  14      0.003918335123     -0.002560285976      0.002941619309    -0.0003810009157
                  15       0.01089433258     -0.004177475796       0.01006071441     -0.000131163455
                  16       0.01990974339     -0.004722054031       0.01934157758    -5.886036791e-05

***** Stress Data ******
          Element No         Integral No           Stress XX           Stress YY           Stress ZZ           Stress XY           Stress XZ           Stress YZ               Mises            YieldFlg
                   1                   1         154.1826956         -84.6005178        -69.58217783         150.1916067        -10.25771696         7.509169985           349.01895               False
                   1                   2         140.5057397        -98.27747374        -42.22826594        -88.59160671        -10.25771696          28.0246039         270.1713209               False
                   1                   3        -140.5057397         98.27747374         42.22826594        -88.59160671         10.25771696          28.0246039         270.1713209               False
                   1                   4        -154.1826956          84.6005178         69.58217783         150.1916067         10.25771696         7.509169985           349.01895               False
                   1                   5         154.1826956         -84.6005178        -69.58217783         150.1916067         10.25771696        -7.509169985           349.01895               False
                   1                   6         140.5057397        -98.27747374        -42.22826594        -88.59160671         10.25771696         -28.0246039         270.1713209               False
                   1                   7        -140.5057397         98.27747374         42.22826594        -88.59160671        -10.25771696         -28.0246039         270.1713209               False
                   1                   8        -154.1826956          84.6005178         69.58217783         150.1916067        -10.25771696        -7.509169985           349.01895               False
                   2                   1         80.14421505        -70.68181986        -9.462395188         106.2130175         6.726393171         30.60971234         232.4930955               False
                   2                   2         89.11273928        -61.71329563        -27.39944364        -44.61301746         6.726393171           17.156926         160.4378023               False
                   2                   3        -89.11273928         61.71329563         27.39944364        -44.61301746        -6.726393171           17.156926         160.4378023               False
                   2                   4        -80.14421505         70.68181986         9.462395188         106.2130175        -6.726393171         30.60971234         232.4930955               False
                   2                   5         80.14421505        -70.68181986        -9.462395188         106.2130175        -6.726393171        -30.60971234         232.4930955               False
                   2                   6         89.11273928        -61.71329563        -27.39944364        -44.61301746        -6.726393171          -17.156926         160.4378023               False
                   2                   7        -89.11273928         61.71329563         27.39944364        -44.61301746         6.726393171          -17.156926         160.4378023               False
                   2                   8        -80.14421505         70.68181986         9.462395188         106.2130175         6.726393171        -30.60971234         232.4930955               False
                   3                   1         26.65457022        -24.13512366        -2.519446563         56.19484694         1.946621577         10.80783855         108.5557713               False
                   3                   2         29.25006565        -21.53962822        -7.710437434         5.405153063         1.946621577         6.914595393          48.0719158               False
                   3                   3        -29.25006565         21.53962822         7.710437434         5.405153063        -1.946621577         6.914595393          48.0719158               False
                   3                   4        -26.65457022         24.13512366         2.519446563         56.19484694        -1.946621577         10.80783855         108.5557713               False
                   3                   5         26.65457022        -24.13512366        -2.519446563         56.19484694        -1.946621577        -10.80783855         108.5557713               False
                   3                   6         29.25006565        -21.53962822        -7.710437434         5.405153063        -1.946621577        -6.914595393          48.0719158               False
                   3                   7        -29.25006565         21.53962822         7.710437434         5.405153063         1.946621577        -6.914595393          48.0719158               False
                   3                   8        -26.65457022         24.13512366         2.519446563         56.19484694         1.946621577        -10.80783855         108.5557713               False

***** Strain Data ******
          Element No         Integral No           Strain XX           Strain YY           Strain ZZ           Strain XY           Strain XZ           Strain YZ
                   1                   1     0.0009544643063    -0.0005237174911    -0.0004307468151      0.001859515131    -0.0001270003052       9.2970676e-05
                   1                   2     0.0008697974361    -0.0006083843613    -0.0002614130748     -0.001096848464    -0.0001270003052     0.0003469712864
                   1                   3    -0.0008697974361     0.0006083843613     0.0002614130748     -0.001096848464     0.0001270003052     0.0003469712864
                   1                   4    -0.0009544643063     0.0005237174911     0.0004307468151      0.001859515131     0.0001270003052       9.2970676e-05
                   1                   5     0.0009544643063    -0.0005237174911    -0.0004307468151      0.001859515131     0.0001270003052      -9.2970676e-05
                   1                   6     0.0008697974361    -0.0006083843613    -0.0002614130748     -0.001096848464     0.0001270003052    -0.0003469712864
                   1                   7    -0.0008697974361     0.0006083843613     0.0002614130748     -0.001096848464    -0.0001270003052    -0.0003469712864
                   1                   8    -0.0009544643063     0.0005237174911     0.0004307468151      0.001859515131    -0.0001270003052      -9.2970676e-05
                   2                   1     0.0004961308551     -0.000437554123    -5.857673212e-05      0.001315018311     8.327915354e-05     0.0003789773908
                   2                   2     0.0005516502908    -0.0003820346873    -0.0001696156035    -0.0005523516447     8.327915354e-05     0.0002124190838
                   2                   3    -0.0005516502908     0.0003820346873     0.0001696156035    -0.0005523516447    -8.327915354e-05     0.0002124190838
                   2                   4    -0.0004961308551      0.000437554123     5.857673212e-05      0.001315018311    -8.327915354e-05     0.0003789773908
                   2                   5     0.0004961308551     -0.000437554123    -5.857673212e-05      0.001315018311    -8.327915354e-05    -0.0003789773908
                   2                   6     0.0005516502908    -0.0003820346873    -0.0001696156035    -0.0005523516447    -8.327915354e-05    -0.0002124190838
                   2                   7    -0.0005516502908     0.0003820346873     0.0001696156035    -0.0005523516447     8.327915354e-05    -0.0002124190838
                   2                   8    -0.0004961308551      0.000437554123     5.857673212e-05      0.001315018311     8.327915354e-05    -0.0003789773908
                   3                   1     0.0001650044823    -0.0001494079083    -1.559657396e-05      0.000695745724     2.410102904e-05     0.0001338113344
                   3                   2      0.000181071835    -0.0001333405556    -4.773127935e-05     6.692094269e-05     2.410102904e-05     8.560927629e-05
                   3                   3     -0.000181071835     0.0001333405556     4.773127935e-05     6.692094269e-05    -2.410102904e-05     8.560927629e-05
                   3                   4    -0.0001650044823     0.0001494079083     1.559657396e-05      0.000695745724    -2.410102904e-05     0.0001338113344
                   3                   5     0.0001650044823    -0.0001494079083    -1.559657396e-05      0.000695745724    -2.410102904e-05    -0.0001338113344
                   3                   6      0.000181071835    -0.0001333405556    -4.773127935e-05     6.692094269e-05    -2.410102904e-05    -8.560927629e-05
                   3                   7     -0.000181071835     0.0001333405556     4.773127935e-05     6.692094269e-05     2.410102904e-05    -8.560927629e-05
                   3                   8    -0.0001650044823     0.0001494079083     1.559657396e-05      0.000695745724     2.410102904e-05    -0.0001338113344

***** Plastic Strain Data ******
          Element No         Integral No          PStrain XX          PStrain YY          PStrain ZZ          PStrain XY          PStrain XZ          PStrain YZ
                   1                   1                   0                   0                   0                   0                   0                   0
                   1                   2                   0                   0                   0                   0                   0                   0
                   1                   3                   0                   0                   0                   0                   0                   0
                   1                   4                   0                   0                   0                   0                   0                   0
                   1                   5                   0                   0                   0                   0                   0                   0
                   1                   6                   0                   0                   0                   0                   0                   0
                   1                   7                   0                   0                   0                   0                   0                   0
                   1                   8                   0                   0                   0                   0                   0                   0
                   2                   1                   0                   0                   0                   0                   0                   0
                   2                   2                   0                   0                   0                   0                   0                   0
                   2                   3                   0                   0                   0                   0                   0                   0
                   2                   4                   0                   0                   0                   0                   0                   0
                   2                   5                   0                   0                   0                   0                   0                   0
                   2                   6                   0                   0                   0                   0                   0                   0
                   2                   7                   0                   0                   0                   0                   0                   0
                   2                   8                   0                   0                   0                   0                   0                   0
                   3                   1                   0                   0                   0                   0                   0                   0
                   3                   2                   0                   0                   0                   0                   0                   0
                   3                   3                   0                   0                   0                   0                   0                   0
                   3                   4                   0                   0                   0                   0                   0                   0
                   3                   5                   0                   0                   0                   0                   0                   0
                   3                   6                   0                   0                   0                   0                   0                   0
                   3                   7                   0                   0                   0                   0                   0                   0
                   3                   8                   0                   0                   0                   0                   0                   0

***** Reaction Force Data ******
              NodeNo           Magnitude             X Force             Y Force             Z Force----------------------------------------------------------------------------------------------------
                   1         47.57648573               -46.2                -7.7         8.354160308
                   2     2.451275895e-13     -2.09610107e-13    -9.503509091e-14    -8.437694987e-14
                   3     4.455594315e-13     3.659295089e-13     2.531308496e-13    -2.331468352e-14
                   4     2.179318632e-13     4.679590049e-14      1.16351373e-13     1.782324288e-13
                   5         47.57648573               -46.2                -7.7        -8.354160308
                   6     8.567699772e-14    -7.105427358e-14     3.819167205e-14     2.886579864e-14
                   7      5.29936373e-13     3.641531521e-13     3.455014053e-13    -1.698641228e-13
                   8     1.431896023e-13    -4.130029652e-14     1.598721155e-14     -1.36168854e-13
                   9         47.57648573                46.2                -7.7        -8.354160308
                  10     1.075869698e-13     1.421085472e-14     1.056932319e-13    -1.421085472e-14
                  11     2.091905309e-13     3.197442311e-14    -5.773159728e-14     1.985078768e-13
                  12     5.919736953e-13    -3.449462938e-13    -4.574118861e-13     1.490613188e-13
                  13         47.57648573                46.2                -7.7         8.354160308
                  14     1.732409027e-13     1.492139745e-13     8.792966355e-14    -3.996802889e-15
                  15     2.990949895e-13     2.664535259e-13     1.341149414e-13     2.176037128e-14
                  16     3.955244976e-13    -2.284838985e-13    -3.170796958e-13    -6.078818005e-14

*Increment 78

***** Displacement Data ******
              NodeNo           Magnitude      X Displacement      Y Displacement      Z Displacement
----------------------------------------------------------------------------------------------------
                   1                   0                   0                   0                   0
                   2      0.003969222592      0.002593536443      0.002979822157    -0.0003859489795
                   3       0.01103581742      0.004231728729       0.01019137304    -0.0001328668765
                   4       0.02016831149      0.004783379408       0.01959276689    -5.962478828e-05
                   5                   0                   0                   0                   0
                   6      0.003969222592      0.002593536443      0.002979822157     0.0003859489795
                   7       0.01103581742      0.004231728729       0.01019137304     0.0001328668765
                   8       0.02016831149      0.004783379408       0.01959276689     5.962478828e-05
                   9                   0                   0                   0                   0
                  10      0.003969222592     -0.002593536443      0.002979822157     0.0003859489795
                  11       0.01103581742     -0.004231728729       0.01019137304     0.0001328668765
                  12       0.02016831149     -0.004783379408       0.01959276689     5.962478828e-05
                  13                   0                   0                   0                   0
                  14      0.003969222592     -0.002593536443      0.002979822157    -0.0003859489795
                  15       0.01103581742     -0.004231728729       0.01019137304    -0.0001328668765
                  16       0.02016831149     -0.004783379408       0.01959276689    -5.962478828e-05

***** Stress Data ******
          Element No         Integral No           Stress XX           Stress YY           Stress ZZ           Stress XY           Stress XZ           Stress YZ               Mises            YieldFlg
                   1                   1         156.1850683        -85.69922582        -70.48584248         152.1421471        -10.39093406         7.606691673         353.5516636               False
                   1                   2         142.3304895        -99.55380457        -42.77668497        -89.74214706        -10.39093406          28.3885598         273.6800394               False
                   1                   3        -142.3304895         99.55380457         42.77668497        -89.74214706         10.39093406          28.3885598         273.6800394               False
                   1                   4        -156.1850683         85.69922582         70.48584248         152.1421471         10.39093406         7.606691673         353.5516636               False
                   1                   5         156.1850683        -85.69922582        -70.48584248         152.1421471         10.39093406        -7.606691673         353.5516636               False
                   1                   6         142.3304895        -99.55380457        -42.77668497        -89.74214706         10.39093406         -28.3885598         273.6800394               False
                   1                   7        -142.3304895         99.55380457         42.77668497        -89.74214706        -10.39093406         -28.3885598         273.6800394               False
                   1                   8        -156.1850683         85.69922582         70.48584248         152.1421471        -10.39093406        -7.606691673         353.5516636               False
                   2                   1         81.18504901        -71.59976557        -9.585283437         107.5924073         6.813748926         31.00724107         235.5124864               False
                   2                   2         90.27004758        -62.51476701        -27.75528057        -45.19240729         6.813748926         17.37974322         162.5214101               False
                   2                   3        -90.27004758         62.51476701         27.75528057        -45.19240729        -6.813748926         17.37974322         162.5214101               False
                   2                   4        -81.18504901         71.59976557         9.585283437         107.5924073        -6.813748926         31.00724107         235.5124864               False
                   2                   5         81.18504901        -71.59976557        -9.585283437         107.5924073        -6.813748926        -31.00724107         235.5124864               False
                   2                   6         90.27004758        -62.51476701        -27.75528057        -45.19240729        -6.813748926        -17.37974322         162.5214101               False
                   2                   7        -90.27004758         62.51476701         27.75528057        -45.19240729         6.813748926        -17.37974322         162.5214101               False
                   2                   8        -81.18504901         71.59976557         9.585283437         107.5924073         6.813748926        -31.00724107         235.5124864               False
                   3                   1         27.00073347        -24.44856682        -2.552166648         56.92465014         1.971902376         10.94820009         109.9655865               False
                   3                   2         29.62993664        -21.81936365        -7.810572985         5.475349856         1.971902376         7.004395333          48.6962264               False
                   3                   3        -29.62993664         21.81936365         7.810572985         5.475349856        -1.971902376         7.004395333          48.6962264               False
                   3                   4        -27.00073347         24.44856682         2.552166648         56.92465014        -1.971902376         10.94820009         109.9655865               False
                   3                   5         27.00073347        -24.44856682        -2.552166648         56.92465014        -1.971902376        -10.94820009         109.9655865               False
                   3                   6         29.62993664        -21.81936365        -7.810572985         5.475349856        -1.971902376        -7.004395333          48.6962264               False
                   3                   7        -29.62993664         21.81936365         7.810572985         5.475349856         1.971902376        -7.004395333          48.6962264               False
                   3                   8        -27.00073347         24.44856682         2.552166648         56.92465014         1.971902376        -10.94820009         109.9655865               False

***** Strain Data ******
          Element No         Integral No           Strain XX           Strain YY           Strain ZZ           Strain XY           Strain XZ           Strain YZ
                   1                   1     0.0009668599466     -0.000530519017    -0.0004363409296      0.001883664678    -0.0001286496598     9.417808738e-05
                   1                   2     0.0008810935067    -0.0006162854569    -0.0002648080498     -0.001111093249    -0.0001286496598      0.000351477407
                   1                   3    -0.0008810935067     0.0006162854569     0.0002648080498     -0.001111093249     0.0001286496598      0.000351477407
                   1                   4    -0.0009668599466      0.000530519017     0.0004363409296      0.001883664678     0.0001286496598     9.417808738e-05
                   1                   5     0.0009668599466     -0.000530519017    -0.0004363409296      0.001883664678     0.0001286496598    -9.417808738e-05
                   1                   6     0.0008810935067    -0.0006162854569    -0.0002648080498     -0.001111093249     0.0001286496598     -0.000351477407
                   1                   7    -0.0008810935067     0.0006162854569     0.0002648080498     -0.001111093249    -0.0001286496598     -0.000351477407
                   1                   8    -0.0009668599466      0.000530519017     0.0004363409296      0.001883664678    -0.0001286496598    -9.417808738e-05
                   2                   1     0.0005025741129     -0.000443236644     -5.93374689e-05      0.001332096471     8.436070099e-05     0.0003838991751
                   2                   2     0.0005588145803    -0.0003869961767    -0.0001718184035    -0.0005595250427     8.436070099e-05     0.0002151777732
                   2                   3    -0.0005588145803     0.0003869961767     0.0001718184035    -0.0005595250427    -8.436070099e-05     0.0002151777732
                   2                   4    -0.0005025741129      0.000443236644      5.93374689e-05      0.001332096471    -8.436070099e-05     0.0003838991751
                   2                   5     0.0005025741129     -0.000443236644     -5.93374689e-05      0.001332096471    -8.436070099e-05    -0.0003838991751
                   2                   6     0.0005588145803    -0.0003869961767    -0.0001718184035    -0.0005595250427    -8.436070099e-05    -0.0002151777732
                   2                   7    -0.0005588145803     0.0003869961767     0.0001718184035    -0.0005595250427     8.436070099e-05    -0.0002151777732
                   2                   8    -0.0005025741129      0.000443236644      5.93374689e-05      0.001332096471     8.436070099e-05    -0.0003838991751
                   3                   1     0.0001671473977    -0.0001513482708    -1.579912687e-05     0.0007047813827     2.441402942e-05     0.0001355491439
                   3                   2     0.0001834234173    -0.0001350722512     -4.83511661e-05     6.779004584e-05     2.441402942e-05     8.672108508e-05
                   3                   3    -0.0001834234173     0.0001350722512      4.83511661e-05     6.779004584e-05    -2.441402942e-05     8.672108508e-05
                   3                   4    -0.0001671473977     0.0001513482708     1.579912687e-05     0.0007047813827    -2.441402942e-05     0.0001355491439
                   3                   5     0.0001671473977    -0.0001513482708    -1.579912687e-05     0.0007047813827    -2.441402942e-05    -0.0001355491439
                   3                   6     0.0001834234173    -0.0001350722512     -4.83511661e-05     6.779004584e-05    -2.441402942e-05    -8.672108508e-05
                   3                   7    -0.0001834234173     0.0001350722512      4.83511661e-05     6.779004584e-05     2.441402942e-05    -8.672108508e-05
                   3                   8    -0.0001671473977     0.0001513482708     1.579912687e-05     0.0007047813827     2.441402942e-05    -0.0001355491439

***** Plastic Strain Data ******
          Element No         Integral No          PStrain XX          PStrain YY          PStrain ZZ          PStrain XY          PStrain XZ          PStrain YZ
                   1                   1                   0                   0                   0                   0                   0                   0
                   1                   2                   0                   0                   0                   0                   0                   0
                   1                   3                   0                   0                   0                   0                   0                   0
                   1                   4                   0                   0                   0                   0                   0                   0
                   1                   5                   0                   0                   0                   0                   0                   0
                   1                   6                   0                   0                   0                   0                   0                   0
                   1                   7                   0                   0                   0                   0                   0                   0
                   1                   8                   0                   0                   0                   0                   0                   0
                   2                   1                   0                   0                   0                   0                   0                   0
                   2                   2                   0                   0                   0                   0                   0                   0
                   2                   3                   0                   0                   0                   0                   0                   0
                   2                   4                   0                   0                   0                   0                   0                   0
                   2                   5                   0                   0                   0                   0                   0                   0
                   2                   6                   0                   0                   0                   0                   0                   0
                   2                   7                   0                   0                   0                   0                   0                   0
                   2                   8                   0                   0                   0                   0                   0                   0
                   3                   1                   0                   0                   0                   0                   0                   0
                   3                   2                   0                   0                   0                   0                   0                   0
                   3                   3                   0                   0                   0                   0                   0                   0
                   3                   4                   0                   0                   0                   0                   0                   0
                   3                   5                   0                   0                   0                   0                   0                   0
                   3                   6                   0                   0                   0                   0                   0                   0
                   3                   7                   0                   0                   0                   0                   0                   0
                   3                   8                   0                   0                   0                   0                   0                   0

***** Reaction Force Data ******
              NodeNo           Magnitude             X Force             Y Force             Z Force----------------------------------------------------------------------------------------------------
                   1         48.19436217               -46.8                -7.8         8.462655896
                   2     2.420954272e-13    -2.167155344e-13    -8.082423619e-14    -7.149836279e-14
                   3     5.508462581e-13     4.067857162e-13      3.70370401e-13    -2.797762022e-14
                   4     1.995469829e-13     1.220135104e-13      4.52970994e-14     1.512609482e-13
                   5         48.19436217               -46.8                -7.8        -8.462655896
                   6     9.943731594e-14    -7.815970093e-14     5.329070518e-14     3.064215548e-14
                   7     5.562266549e-13     3.232969448e-13     4.227729278e-13    -1.616484724e-13
                   8     1.360227675e-13     4.019007349e-14    -3.108624469e-14    -1.261768467e-13
                   9         48.19436217                46.8                -7.8        -8.462655896
                  10     8.134109433e-14     3.907985047e-14     7.016609516e-14     1.287858709e-14
                  11     2.181035322e-13    -4.440892099e-14    -7.993605777e-15     2.133848653e-13
                  12     6.621625414e-13    -3.778644064e-13     -5.24913446e-13     1.419281359e-13
                  13         48.19436217                46.8                -7.8         8.462655896
                  14     1.874729845e-13     1.776356839e-13     5.950795412e-14    -7.105427358e-15
                  15     2.356708257e-13     1.580957587e-13     1.740829703e-13    -1.554312234e-14
                  16     4.641056826e-13    -2.788880238e-13    -3.668176873e-13    -5.532033165e-14

*Increment 79

***** Displacement Data ******
              NodeNo           Magnitude      X Displacement      Y Displacement      Z Displacement
----------------------------------------------------------------------------------------------------
                   1                   0                   0                   0                   0
                   2      0.004020110061       0.00262678691      0.003018025006    -0.0003908970433
                   3       0.01117730226      0.004285981661       0.01032203167     -0.000134570298
                   4       0.02042687958      0.004844704785       0.01984395621    -6.038920864e-05
                   5                   0                   0                   0                   0
                   6      0.004020110061       0.00262678691      0.003018025006     0.0003908970433
                   7       0.01117730226      0.004285981661       0.01032203167      0.000134570298
                   8       0.02042687958      0.004844704785       0.01984395621     6.038920864e-05
                   9                   0                   0                   0                   0
                  10      0.004020110061      -0.00262678691      0.003018025006     0.0003908970433
                  11       0.01117730226     -0.004285981661       0.01032203167      0.000134570298
                  12       0.02042687958     -0.004844704785       0.01984395621     6.038920864e-05
                  13                   0                   0                   0                   0
                  14      0.004020110061      -0.00262678691      0.003018025006    -0.0003908970433
                  15       0.01117730226     -0.004285981661       0.01032203167     -0.000134570298
                  16       0.02042687958     -0.004844704785       0.01984395621    -6.038920864e-05

***** Stress Data ******
          Element No         Integral No           Stress XX           Stress YY           Stress ZZ           Stress XY           Stress XZ           Stress YZ               Mises            YieldFlg
                   1                   1          158.187441        -86.79793384        -71.38950712         154.0926874        -10.52415117         7.704213361         358.0843772               False
                   1                   2         144.1552394        -100.8301354        -43.32510401        -90.89268741        -10.52415117         28.75251569         277.1887578               False
                   1                   3        -144.1552394         100.8301354         43.32510401        -90.89268741         10.52415117         28.75251569         277.1887578               False
                   1                   4         -158.187441         86.79793384         71.38950712         154.0926874         10.52415117         7.704213361         358.0843772               False
                   1                   5          158.187441        -86.79793384        -71.38950712         154.0926874         10.52415117        -7.704213361         358.0843772               False
                   1                   6         144.1552394        -100.8301354        -43.32510401        -90.89268741         10.52415117        -28.75251569         277.1887578               False
                   1                   7        -144.1552394         100.8301354         43.32510401        -90.89268741        -10.52415117        -28.75251569         277.1887578               False
                   1                   8         -158.187441         86.79793384         71.38950712         154.0926874        -10.52415117        -7.704213361         358.0843772               False
                   2                   1         82.22588297        -72.51771129        -9.708171686         108.9717971         6.901104681          31.4047698         238.5318772               False
                   2                   2         91.42735588        -63.31623838         -28.1111175        -45.77179713         6.901104681         17.60256044          164.605018               False
                   2                   3        -91.42735588         63.31623838          28.1111175        -45.77179713        -6.901104681         17.60256044          164.605018               False
                   2                   4        -82.22588297         72.51771129         9.708171686         108.9717971        -6.901104681          31.4047698         238.5318772               False
                   2                   5         82.22588297        -72.51771129        -9.708171686         108.9717971        -6.901104681         -31.4047698         238.5318772               False
                   2                   6         91.42735588        -63.31623838         -28.1111175        -45.77179713        -6.901104681        -17.60256044          164.605018               False
                   2                   7        -91.42735588         63.31623838          28.1111175        -45.77179713         6.901104681        -17.60256044          164.605018               False
                   2                   8        -82.22588297         72.51771129         9.708171686         108.9717971         6.901104681         -31.4047698         238.5318772               False
                   3                   1         27.34689672        -24.76200998        -2.584886734         57.65445335         1.997183176         11.08856163         111.3754017               False
                   3                   2         30.00980762        -22.09909908        -7.910708536         5.545546649         1.997183176         7.094195273         49.32053699               False
                   3                   3        -30.00980762         22.09909908         7.910708536         5.545546649        -1.997183176         7.094195273         49.32053699               False
                   3                   4        -27.34689672         24.76200998         2.584886734         57.65445335        -1.997183176         11.08856163         111.3754017               False
                   3                   5         27.34689672        -24.76200998        -2.584886734         57.65445335        -1.997183176        -11.08856163         111.3754017               False
                   3                   6         30.00980762        -22.09909908        -7.910708536         5.545546649        -1.997183176        -7.094195273         49.32053699               False
                   3                   7        -30.00980762         22.09909908         7.910708536         5.545546649         1.997183176        -7.094195273         49.32053699               False
                   3                   8        -27.34689672         24.76200998         2.584886734         57.65445335         1.997183176        -11.08856163         111.3754017               False

***** Strain Data ******
          Element No         Integral No           Strain XX           Strain YY           Strain ZZ           Strain XY           Strain XZ           Strain YZ
                   1                   1     0.0009792555869    -0.0005373205428    -0.0004419350441      0.001907814225    -0.0001302990144     9.538549875e-05
                   1                   2     0.0008923895773    -0.0006241865525    -0.0002682030248     -0.001125338035    -0.0001302990144     0.0003559835276
                   1                   3    -0.0008923895773     0.0006241865525     0.0002682030248     -0.001125338035     0.0001302990144     0.0003559835276
                   1                   4    -0.0009792555869     0.0005373205428     0.0004419350441      0.001907814225     0.0001302990144     9.538549875e-05
                   1                   5     0.0009792555869    -0.0005373205428    -0.0004419350441      0.001907814225     0.0001302990144    -9.538549875e-05
                   1                   6     0.0008923895773    -0.0006241865525    -0.0002682030248     -0.001125338035     0.0001302990144    -0.0003559835276
                   1                   7    -0.0008923895773     0.0006241865525     0.0002682030248     -0.001125338035    -0.0001302990144    -0.0003559835276
                   1                   8    -0.0009792555869     0.0005373205428     0.0004419350441      0.001907814225    -0.0001302990144    -9.538549875e-05
                   2                   1     0.0005090173708    -0.0004489191651    -6.009820568e-05      0.001349174631     8.544224844e-05     0.0003888209594
                   2                   2     0.0005659788697    -0.0003919576662    -0.0001740212036    -0.0005666984407     8.544224844e-05     0.0002179364626
                   2                   3    -0.0005659788697     0.0003919576662     0.0001740212036    -0.0005666984407    -8.544224844e-05     0.0002179364626
                   2                   4    -0.0005090173708     0.0004489191651     6.009820568e-05      0.001349174631    -8.544224844e-05     0.0003888209594
                   2                   5     0.0005090173708    -0.0004489191651    -6.009820568e-05      0.001349174631    -8.544224844e-05    -0.0003888209594
                   2                   6     0.0005659788697    -0.0003919576662    -0.0001740212036    -0.0005666984407    -8.544224844e-05    -0.0002179364626
                   2                   7    -0.0005659788697     0.0003919576662     0.0001740212036    -0.0005666984407     8.544224844e-05    -0.0002179364626
                   2                   8    -0.0005090173708     0.0004489191651     6.009820568e-05      0.001349174631     8.544224844e-05    -0.0003888209594
                   3                   1      0.000169290313    -0.0001532886332    -1.600167978e-05     0.0007138170415      2.47270298e-05     0.0001372869535
                   3                   2     0.0001857749995    -0.0001368039467    -4.897105284e-05     6.865914899e-05      2.47270298e-05     8.783289386e-05
                   3                   3    -0.0001857749995     0.0001368039467     4.897105284e-05     6.865914899e-05     -2.47270298e-05     8.783289386e-05
                   3                   4     -0.000169290313     0.0001532886332     1.600167978e-05     0.0007138170415     -2.47270298e-05     0.0001372869535
                   3                   5      0.000169290313    -0.0001532886332    -1.600167978e-05     0.0007138170415     -2.47270298e-05    -0.0001372869535
                   3                   6     0.0001857749995    -0.0001368039467    -4.897105284e-05     6.865914899e-05     -2.47270298e-05    -8.783289386e-05
                   3                   7    -0.0001857749995     0.0001368039467     4.897105284e-05     6.865914899e-05      2.47270298e-05    -8.783289386e-05
                   3                   8     -0.000169290313     0.0001532886332     1.600167978e-05     0.0007138170415      2.47270298e-05    -0.0001372869535

***** Plastic Strain Data ******
          Element No         Integral No          PStrain XX          PStrain YY          PStrain ZZ          PStrain XY          PStrain XZ          PStrain YZ
                   1                   1                   0                   0                   0                   0                   0                   0
                   1                   2                   0                   0                   0                   0                   0                   0
                   1                   3                   0                   0                   0                   0                   0                   0
                   1                   4                   0                   0                   0                   0                   0                   0
                   1                   5                   0                   0                   0                   0                   0                   0
                   1                   6                   0                   0                   0                   0                   0                   0
                   1                   7                   0                   0                   0                   0                   0                   0
                   1                   8                   0                   0                   0                   0                   0                   0
                   2                   1                   0                   0                   0                   0                   0                   0
                   2                   2                   0                   0                   0                   0                   0                   0
                   2                   3                   0                   0                   0                   0                   0                   0
                   2                   4                   0                   0                   0                   0                   0                   0
                   2                   5                   0                   0                   0                   0                   0                   0
                   2                   6                   0                   0                   0                   0                   0                   0
                   2                   7                   0                   0                   0                   0                   0                   0
                   2                   8                   0                   0                   0                   0                   0                   0
                   3                   1                   0                   0                   0                   0                   0                   0
                   3                   2                   0                   0                   0                   0                   0                   0
                   3                   3                   0                   0                   0                   0                   0                   0
                   3                   4                   0                   0                   0                   0                   0                   0
                   3                   5                   0                   0                   0                   0                   0                   0
                   3                   6                   0                   0                   0                   0                   0                   0
                   3                   7                   0                   0                   0                   0                   0                   0
                   3                   8                   0                   0                   0                   0                   0                   0

***** Reaction Force Data ******
              NodeNo           Magnitude             X Force             Y Force             Z Force----------------------------------------------------------------------------------------------------
                   1         48.81223861               -47.4                -7.9         8.571151485
                   2      2.80770113e-13    -2.486899575e-13    -9.325873407e-14    -9.103828802e-14
                   3     4.394105087e-13     3.641531521e-13     2.451372438e-13    -1.953992523e-14
                   4     1.805646694e-13     5.290212712e-14     8.526512829e-14     1.501160307e-13
                   5         48.81223861               -47.4                -7.9        -8.571151485
                   6     9.508073398e-14    -8.881784197e-14     2.309263891e-14     2.486899575e-14
                   7      5.23357391e-13     3.073097332e-13     3.774758284e-13    -1.922906279e-13
                   8     1.668042852e-13    -1.554312234e-14     3.641531521e-14    -1.620370504e-13
                   9         48.81223861                47.4                -7.9        -8.571151485
                  10     8.970602039e-14      4.97379915e-14     7.460698725e-14    -2.664535259e-15
                  11        2.466092e-13      4.97379915e-14    -5.329070518e-14     2.355893258e-13
                  12     5.761248667e-13    -3.136380045e-13    -4.654054919e-13     1.301875274e-13
                  13         48.81223861                47.4                -7.9         8.571151485
                  14     2.150185301e-13     1.953992523e-13     8.970602039e-14     2.220446049e-15
                  15     2.882138972e-13     2.025046797e-13     2.025046797e-13     3.241851232e-14
                  16     4.098193226e-13    -2.435829316e-13    -3.286260153e-13     -2.49834875e-14

*Increment 80

***** Displacement Data ******
              NodeNo           Magnitude      X Displacement      Y Displacement      Z Displacement
----------------------------------------------------------------------------------------------------
                   1                   0                   0                   0                   0
                   2       0.00407099753      0.002660037378      0.003056227854    -0.0003958451072
                   3        0.0113187871      0.004340234593        0.0104526903    -0.0001362737195
                   4       0.02068544768      0.004906030162       0.02009514553      -6.1153629e-05
                   5                   0                   0                   0                   0
                   6       0.00407099753      0.002660037378      0.003056227854     0.0003958451072
                   7        0.0113187871      0.004340234593        0.0104526903     0.0001362737195
                   8       0.02068544768      0.004906030162       0.02009514553       6.1153629e-05
                   9                   0                   0                   0                   0
                  10       0.00407099753     -0.002660037378      0.003056227854     0.0003958451072
                  11        0.0113187871     -0.004340234593        0.0104526903     0.0001362737195
                  12       0.02068544768     -0.004906030162       0.02009514553       6.1153629e-05
                  13                   0                   0                   0                   0
                  14       0.00407099753     -0.002660037378      0.003056227854    -0.0003958451072
                  15        0.0113187871     -0.004340234593        0.0104526903    -0.0001362737195
                  16       0.02068544768     -0.004906030162       0.02009514553      -6.1153629e-05

***** Stress Data ******
          Element No         Integral No           Stress XX           Stress YY           Stress ZZ           Stress XY           Stress XZ           Stress YZ               Mises            YieldFlg
                   1                   1         160.1898136        -87.89664187        -72.29317177         156.0432278        -10.65736827         7.801735049         362.6170909               False
                   1                   2         145.9799893        -102.1064662        -43.87352305        -92.04322775        -10.65736827         29.11647159         280.6974763               False
                   1                   3        -145.9799893         102.1064662         43.87352305        -92.04322775         10.65736827         29.11647159         280.6974763               False
                   1                   4        -160.1898136         87.89664187         72.29317177         156.0432278         10.65736827         7.801735049         362.6170909               False
                   1                   5         160.1898136        -87.89664187        -72.29317177         156.0432278         10.65736827        -7.801735049         362.6170909               False
                   1                   6         145.9799893        -102.1064662        -43.87352305        -92.04322775         10.65736827        -29.11647159         280.6974763               False
                   1                   7        -145.9799893         102.1064662         43.87352305        -92.04322775        -10.65736827        -29.11647159         280.6974763               False
                   1                   8        -160.1898136         87.89664187         72.29317177         156.0432278        -10.65736827        -7.801735049         362.6170909               False
                   2                   1         83.26671693          -73.435657        -9.831059936          110.351187         6.988460437         31.80229853         241.5512681               False
                   2                   2         92.58466418        -64.11770975        -28.46695443        -46.35118697         6.988460437         17.82537766         166.6886258               False
                   2                   3        -92.58466418         64.11770975         28.46695443        -46.35118697        -6.988460437         17.82537766         166.6886258               False
                   2                   4        -83.26671693           73.435657         9.831059936          110.351187        -6.988460437         31.80229853         241.5512681               False
                   2                   5         83.26671693          -73.435657        -9.831059936          110.351187        -6.988460437        -31.80229853         241.5512681               False
                   2                   6         92.58466418        -64.11770975        -28.46695443        -46.35118697        -6.988460437        -17.82537766         166.6886258               False
                   2                   7        -92.58466418         64.11770975         28.46695443        -46.35118697         6.988460437        -17.82537766         166.6886258               False
                   2                   8        -83.26671693           73.435657         9.831059936          110.351187         6.988460437        -31.80229853         241.5512681               False
                   3                   1         27.69305997        -25.07545315        -2.617606819         58.38425656         2.022463976         11.22892316         112.7852169               False
                   3                   2          30.3896786        -22.37883451        -8.010844087         5.615743442         2.022463976         7.183995213         49.94484759               False
                   3                   3         -30.3896786         22.37883451         8.010844087         5.615743442        -2.022463976         7.183995213         49.94484759               False
                   3                   4        -27.69305997         25.07545315         2.617606819         58.38425656        -2.022463976         11.22892316         112.7852169               False
                   3                   5         27.69305997        -25.07545315        -2.617606819         58.38425656        -2.022463976        -11.22892316         112.7852169               False
                   3                   6          30.3896786        -22.37883451        -8.010844087         5.615743442        -2.022463976        -7.183995213         49.94484759               False
                   3                   7         -30.3896786         22.37883451         8.010844087         5.615743442         2.022463976        -7.183995213         49.94484759               False
                   3                   8        -27.69305997         25.07545315         2.617606819         58.38425656         2.022463976        -11.22892316         112.7852169               False

***** Strain Data ******
          Element No         Integral No           Strain XX           Strain YY           Strain ZZ           Strain XY           Strain XZ           Strain YZ
                   1                   1     0.0009916512273    -0.0005441220687    -0.0004475291586      0.001931963772    -0.0001319483691     9.659291013e-05
                   1                   2     0.0009036856479    -0.0006320876481    -0.0002715979998      -0.00113958282    -0.0001319483691     0.0003604896483
                   1                   3    -0.0009036856479     0.0006320876481     0.0002715979998      -0.00113958282     0.0001319483691     0.0003604896483
                   1                   4    -0.0009916512273     0.0005441220687     0.0004475291586      0.001931963772     0.0001319483691     9.659291013e-05
                   1                   5     0.0009916512273    -0.0005441220687    -0.0004475291586      0.001931963772     0.0001319483691    -9.659291013e-05
                   1                   6     0.0009036856479    -0.0006320876481    -0.0002715979998      -0.00113958282     0.0001319483691    -0.0003604896483
                   1                   7    -0.0009036856479     0.0006320876481     0.0002715979998      -0.00113958282    -0.0001319483691    -0.0003604896483
                   1                   8    -0.0009916512273     0.0005441220687     0.0004475291586      0.001931963772    -0.0001319483691    -9.659291013e-05
                   2                   1     0.0005154606286    -0.0004546016862    -6.085894246e-05      0.001366252791     8.652379589e-05     0.0003937427437
                   2                   2     0.0005731431592    -0.0003969191556    -0.0001762240036    -0.0005738718386     8.652379589e-05      0.000220695152
                   2                   3    -0.0005731431592     0.0003969191556     0.0001762240036    -0.0005738718386    -8.652379589e-05      0.000220695152
                   2                   4    -0.0005154606286     0.0004546016862     6.085894246e-05      0.001366252791    -8.652379589e-05     0.0003937427437
                   2                   5     0.0005154606286    -0.0004546016862    -6.085894246e-05      0.001366252791    -8.652379589e-05    -0.0003937427437
                   2                   6     0.0005731431592    -0.0003969191556    -0.0001762240036    -0.0005738718386    -8.652379589e-05     -0.000220695152
                   2                   7    -0.0005731431592     0.0003969191556     0.0001762240036    -0.0005738718386     8.652379589e-05     -0.000220695152
                   2                   8    -0.0005154606286     0.0004546016862     6.085894246e-05      0.001366252791     8.652379589e-05    -0.0003937427437
                   3                   1     0.0001714332284    -0.0001552289957    -1.620423269e-05     0.0007228527002     2.504003017e-05      0.000139024763
                   3                   2     0.0001881265818    -0.0001385356422    -4.959093959e-05     6.952825214e-05     2.504003017e-05     8.894470264e-05
                   3                   3    -0.0001881265818     0.0001385356422     4.959093959e-05     6.952825214e-05    -2.504003017e-05     8.894470264e-05
                   3                   4    -0.0001714332284     0.0001552289957     1.620423269e-05     0.0007228527002    -2.504003017e-05      0.000139024763
                   3                   5     0.0001714332284    -0.0001552289957    -1.620423269e-05     0.0007228527002    -2.504003017e-05     -0.000139024763
                   3                   6     0.0001881265818    -0.0001385356422    -4.959093959e-05     6.952825214e-05    -2.504003017e-05    -8.894470264e-05
                   3                   7    -0.0001881265818     0.0001385356422     4.959093959e-05     6.952825214e-05     2.504003017e-05    -8.894470264e-05
                   3                   8    -0.0001714332284     0.0001552289957     1.620423269e-05     0.0007228527002     2.504003017e-05     -0.000139024763

***** Plastic Strain Data ******
          Element No         Integral No          PStrain XX          PStrain YY          PStrain ZZ          PStrain XY          PStrain XZ          PStrain YZ
                   1                   1                   0                   0                   0                   0                   0                   0
                   1                   2                   0                   0                   0                   0                   0                   0
                   1                   3                   0                   0                   0                   0                   0                   0
                   1                   4                   0                   0                   0                   0                   0                   0
                   1                   5                   0                   0                   0                   0                   0                   0
                   1                   6                   0                   0                   0                   0                   0                   0
                   1                   7                   0                   0                   0                   0                   0                   0
                   1                   8                   0                   0                   0                   0                   0                   0
                   2                   1                   0                   0                   0                   0                   0                   0
                   2                   2                   0                   0                   0                   0                   0                   0
                   2                   3                   0                   0                   0                   0                   0                   0
                   2                   4                   0                   0                   0                   0                   0                   0
                   2                   5                   0                   0                   0                   0                   0                   0
                   2                   6                   0                   0                   0                   0                   0                   0
                   2                   7                   0                   0                   0                   0                   0                   0
                   2                   8                   0                   0                   0                   0                   0                   0
                   3                   1                   0                   0                   0                   0                   0                   0
                   3                   2                   0                   0                   0                   0                   0                   0
                   3                   3                   0                   0                   0                   0                   0                   0
                   3                   4                   0                   0                   0                   0                   0                   0
                   3                   5                   0                   0                   0                   0                   0                   0
                   3                   6                   0                   0                   0                   0                   0                   0
                   3                   7                   0                   0                   0                   0                   0                   0
                   3                   8                   0                   0                   0                   0                   0                   0

***** Reaction Force Data ******
              NodeNo           Magnitude             X Force             Y Force             Z Force----------------------------------------------------------------------------------------------------
                   1         49.43011504                 -48                  -8         8.679647073
                   2     2.513752841e-13    -2.344791028e-13    -5.329070518e-14    -7.327471963e-14
                   3      4.66116847e-13     3.357314426e-13     3.232969448e-13    -5.329070518e-15
                   4      2.45662723e-13     4.829470157e-15     1.829647545e-13     1.638619795e-13
                   5         49.43011504                 -48                  -8        -8.679647073
                   6     1.043070928e-13    -8.171241461e-14     6.394884622e-14     1.065814104e-14
                   7     5.546896893e-13     3.232969448e-13     4.130029652e-13    -1.805222638e-13
                   8     2.238800516e-13    -1.054711873e-13     7.993605777e-14     -1.80577775e-13
                   9         49.43011504                  48                  -8        -8.679647073
                  10      7.69851413e-14     3.552713679e-14     6.394884622e-14     2.398081733e-14
                  11     3.376903526e-13     8.348877145e-14    -1.953992523e-13      2.62456723e-13
                  12     5.923172775e-13    -2.862710069e-13    -4.858335956e-13     1.812577866e-13
                  13         49.43011504                  48                  -8         8.679647073
                  14     2.058984553e-13     1.918465387e-13     6.838973832e-14    -3.019806627e-14
                  15     2.879784132e-13     2.788880238e-13     7.105427358e-14    -1.021405183e-14
                  16     4.060318781e-13    -2.513544928e-13    -3.090860901e-13    -7.841297056e-14

*Increment 81

***** Displacement Data ******
              NodeNo           Magnitude      X Displacement      Y Displacement      Z Displacement
----------------------------------------------------------------------------------------------------
                   1                   0                   0                   0                   0
                   2         0.004121885      0.002693287845      0.003094430702     -0.000400793171
                   3       0.01146027194      0.004394487526       0.01058334893     -0.000137977141
                   4       0.02094401578      0.004967355539       0.02034633485    -6.191804936e-05
                   5                   0                   0                   0                   0
                   6         0.004121885      0.002693287845      0.003094430702      0.000400793171
                   7       0.01146027194      0.004394487526       0.01058334893      0.000137977141
                   8       0.02094401578      0.004967355539       0.02034633485     6.191804936e-05
                   9                   0                   0                   0                   0
                  10         0.004121885     -0.002693287845      0.003094430702      0.000400793171
                  11       0.01146027194     -0.004394487526       0.01058334893      0.000137977141
                  12       0.02094401578     -0.004967355539       0.02034633485     6.191804936e-05
                  13                   0                   0                   0                   0
                  14         0.004121885     -0.002693287845      0.003094430702     -0.000400793171
                  15       0.01146027194     -0.004394487526       0.01058334893     -0.000137977141
                  16       0.02094401578     -0.004967355539       0.02034633485    -6.191804936e-05

***** Stress Data ******
          Element No         Integral No           Stress XX           Stress YY           Stress ZZ           Stress XY           Stress XZ           Stress YZ               Mises            YieldFlg
                   1                   1         162.1921863        -88.99534989        -73.19683642         157.9937681        -10.79058537         7.899256737         367.1498045               False
                   1                   2         147.8047391        -103.3827971        -44.42194209         -93.1937681        -10.79058537         29.48042748         284.2061947               False
                   1                   3        -147.8047391         103.3827971         44.42194209         -93.1937681         10.79058537         29.48042748         284.2061947               False
                   1                   4        -162.1921863         88.99534989         73.19683642         157.9937681         10.79058537         7.899256737         367.1498045               False
                   1                   5         162.1921863        -88.99534989        -73.19683642         157.9937681         10.79058537        -7.899256737         367.1498045               False
                   1                   6         147.8047391        -103.3827971        -44.42194209         -93.1937681         10.79058537        -29.48042748         284.2061947               False
                   1                   7        -147.8047391         103.3827971         44.42194209         -93.1937681        -10.79058537        -29.48042748         284.2061947               False
                   1                   8        -162.1921863         88.99534989         73.19683642         157.9937681        -10.79058537        -7.899256737         367.1498045               False
                   2                   1          84.3075509        -74.35360271        -9.953948185         111.7305768         7.075816192         32.19982726         244.5706589               False
                   2                   2         93.74197249        -64.91918112        -28.82279136         -46.9305768         7.075816192         18.04819488         168.7722336               False
                   2                   3        -93.74197249         64.91918112         28.82279136         -46.9305768        -7.075816192         18.04819488         168.7722336               False
                   2                   4         -84.3075509         74.35360271         9.953948185         111.7305768        -7.075816192         32.19982726         244.5706589               False
                   2                   5          84.3075509        -74.35360271        -9.953948185         111.7305768        -7.075816192        -32.19982726         244.5706589               False
                   2                   6         93.74197249        -64.91918112        -28.82279136         -46.9305768        -7.075816192        -18.04819488         168.7722336               False
                   2                   7        -93.74197249         64.91918112         28.82279136         -46.9305768         7.075816192        -18.04819488         168.7722336               False
                   2                   8         -84.3075509         74.35360271         9.953948185         111.7305768         7.075816192        -32.19982726         244.5706589               False
                   3                   1         28.03922322        -25.38889631        -2.650326904         59.11405976         2.047744775          11.3692847         114.1950321               False
                   3                   2         30.76954958        -22.65856995        -8.110979638         5.685940235         2.047744775         7.273795154         50.56915818               False
                   3                   3        -30.76954958         22.65856995         8.110979638         5.685940235        -2.047744775         7.273795154         50.56915818               False
                   3                   4        -28.03922322         25.38889631         2.650326904         59.11405976        -2.047744775          11.3692847         114.1950321               False
                   3                   5         28.03922322        -25.38889631        -2.650326904         59.11405976        -2.047744775         -11.3692847         114.1950321               False
                   3                   6         30.76954958        -22.65856995        -8.110979638         5.685940235        -2.047744775        -7.273795154         50.56915818               False
                   3                   7        -30.76954958         22.65856995         8.110979638         5.685940235         2.047744775        -7.273795154         50.56915818               False
                   3                   8        -28.03922322         25.38889631         2.650326904         59.11405976         2.047744775         -11.3692847         114.1950321               False

***** Strain Data ******
          Element No         Integral No           Strain XX           Strain YY           Strain ZZ           Strain XY           Strain XZ           Strain YZ
                   1                   1      0.001004046868    -0.0005509235946    -0.0004531232731      0.001956113319    -0.0001335977237     9.780032151e-05
                   1                   2     0.0009149817185    -0.0006399887437    -0.0002749929748     -0.001153827605    -0.0001335977237     0.0003649957689
                   1                   3    -0.0009149817185     0.0006399887437     0.0002749929748     -0.001153827605     0.0001335977237     0.0003649957689
                   1                   4     -0.001004046868     0.0005509235946     0.0004531232731      0.001956113319     0.0001335977237     9.780032151e-05
                   1                   5      0.001004046868    -0.0005509235946    -0.0004531232731      0.001956113319     0.0001335977237    -9.780032151e-05
                   1                   6     0.0009149817185    -0.0006399887437    -0.0002749929748     -0.001153827605     0.0001335977237    -0.0003649957689
                   1                   7    -0.0009149817185     0.0006399887437     0.0002749929748     -0.001153827605    -0.0001335977237    -0.0003649957689
                   1                   8     -0.001004046868     0.0005509235946     0.0004531232731      0.001956113319    -0.0001335977237    -9.780032151e-05
                   2                   1     0.0005219038865    -0.0004602842073    -6.161967924e-05      0.001383330951     8.760534333e-05      0.000398664528
                   2                   2     0.0005803074487     -0.000401880645    -0.0001784268037    -0.0005810452366     8.760534333e-05     0.0002234538414
                   2                   3    -0.0005803074487      0.000401880645     0.0001784268037    -0.0005810452366    -8.760534333e-05     0.0002234538414
                   2                   4    -0.0005219038865     0.0004602842073     6.161967924e-05      0.001383330951    -8.760534333e-05      0.000398664528
                   2                   5     0.0005219038865    -0.0004602842073    -6.161967924e-05      0.001383330951    -8.760534333e-05     -0.000398664528
                   2                   6     0.0005803074487     -0.000401880645    -0.0001784268037    -0.0005810452366    -8.760534333e-05    -0.0002234538414
                   2                   7    -0.0005803074487      0.000401880645     0.0001784268037    -0.0005810452366     8.760534333e-05    -0.0002234538414
                   2                   8    -0.0005219038865     0.0004602842073     6.161967924e-05      0.001383330951     8.760534333e-05     -0.000398664528
                   3                   1     0.0001735761437    -0.0001571693581     -1.64067856e-05      0.000731888359     2.535303055e-05     0.0001407625725
                   3                   2     0.0001904781641    -0.0001402673378    -5.021082633e-05     7.039735529e-05     2.535303055e-05     9.005651143e-05
                   3                   3    -0.0001904781641     0.0001402673378     5.021082633e-05     7.039735529e-05    -2.535303055e-05     9.005651143e-05
                   3                   4    -0.0001735761437     0.0001571693581      1.64067856e-05      0.000731888359    -2.535303055e-05     0.0001407625725
                   3                   5     0.0001735761437    -0.0001571693581     -1.64067856e-05      0.000731888359    -2.535303055e-05    -0.0001407625725
                   3                   6     0.0001904781641    -0.0001402673378    -5.021082633e-05     7.039735529e-05    -2.535303055e-05    -9.005651143e-05
                   3                   7    -0.0001904781641     0.0001402673378     5.021082633e-05     7.039735529e-05     2.535303055e-05    -9.005651143e-05
                   3                   8    -0.0001735761437     0.0001571693581      1.64067856e-05      0.000731888359     2.535303055e-05    -0.0001407625725

***** Plastic Strain Data ******
          Element No         Integral No          PStrain XX          PStrain YY          PStrain ZZ          PStrain XY          PStrain XZ          PStrain YZ
                   1                   1                   0                   0                   0                   0                   0                   0
                   1                   2                   0                   0                   0                   0                   0                   0
                   1                   3                   0                   0                   0                   0                   0                   0
                   1                   4                   0                   0                   0                   0                   0                   0
                   1                   5                   0                   0                   0                   0                   0                   0
                   1                   6                   0                   0                   0                   0                   0                   0
                   1                   7                   0                   0                   0                   0                   0                   0
                   1                   8                   0                   0                   0                   0                   0                   0
                   2                   1                   0                   0                   0                   0                   0                   0
                   2                   2                   0                   0                   0                   0                   0                   0
                   2                   3                   0                   0                   0                   0                   0                   0
                   2                   4                   0                   0                   0                   0                   0                   0
                   2                   5                   0                   0                   0                   0                   0                   0
                   2                   6                   0                   0                   0                   0                   0                   0
                   2                   7                   0                   0                   0                   0                   0                   0
                   2                   8                   0                   0                   0                   0                   0                   0
                   3                   1                   0                   0                   0                   0                   0                   0
                   3                   2                   0                   0                   0                   0                   0                   0
                   3                   3                   0                   0                   0                   0                   0                   0
                   3                   4                   0                   0                   0                   0                   0                   0
                   3                   5                   0                   0                   0                   0                   0                   0
                   3                   6                   0                   0                   0                   0                   0                   0
                   3                   7                   0                   0                   0                   0                   0                   0
                   3                   8                   0                   0                   0                   0                   0                   0

***** Reaction Force Data ******
              NodeNo           Magnitude             X Force             Y Force             Z Force----------------------------------------------------------------------------------------------------
                   1         50.04799148               -48.6                -8.1         8.788142662
                   2     2.707589733e-13    -2.273736754e-13    -1.065814104e-13    -1.012523398e-13
                   3     4.268665321e-13     3.588240816e-13     2.309263891e-13     1.154631946e-14
                   4     2.807446499e-13     5.495603972e-15     2.184918912e-13     1.762062718e-13
                   5         50.04799148               -48.6                -8.1        -8.788142662
                   6     8.455090028e-14    -7.815970093e-14     1.243449788e-14     2.975397706e-14
                   7     5.518127864e-13     3.481659405e-13     3.730349363e-13    -2.100541963e-13
                   8     2.349013184e-13    -7.260858581e-14     1.296740493e-13    -1.819100426e-13
                   9         50.04799148                48.6                -8.1        -8.788142662
                  10     1.386362301e-13    -2.131628207e-14     1.367794766e-13    -7.549516567e-15
                  11     3.547242311e-13     9.237055565e-14    -1.723066134e-13     2.959854584e-13
                  12     6.017726683e-13    -2.784994457e-13    -5.062616992e-13     1.681293993e-13
                  13         50.04799148                48.6                -8.1         8.788142662
                  14     2.032900517e-13     1.634248292e-13     1.207922651e-13    -5.329070518e-15
                  15     3.295477082e-13     3.055333764e-13     1.225686219e-13    -1.509903313e-14
                  16     4.586240299e-13    -2.577937863e-13    -3.730349363e-13    -6.872627467e-14

*Increment 82

***** Displacement Data ******
              NodeNo           Magnitude      X Displacement      Y Displacement      Z Displacement
----------------------------------------------------------------------------------------------------
                   1                   0                   0                   0                   0
                   2      0.004172772469      0.002726538312       0.00313263355    -0.0004057412349
                   3       0.01160175678      0.004448740458       0.01071400756    -0.0001396805625
                   4       0.02120258387      0.005028680916       0.02059752417    -6.268246973e-05
                   5                   0                   0                   0                   0
                   6      0.004172772469      0.002726538312       0.00313263355     0.0004057412349
                   7       0.01160175678      0.004448740458       0.01071400756     0.0001396805625
                   8       0.02120258387      0.005028680916       0.02059752417     6.268246973e-05
                   9                   0                   0                   0                   0
                  10      0.004172772469     -0.002726538312       0.00313263355     0.0004057412349
                  11       0.01160175678     -0.004448740458       0.01071400756     0.0001396805625
                  12       0.02120258387     -0.005028680916       0.02059752417     6.268246973e-05
                  13                   0                   0                   0                   0
                  14      0.004172772469     -0.002726538312       0.00313263355    -0.0004057412349
                  15       0.01160175678     -0.004448740458       0.01071400756    -0.0001396805625
                  16       0.02120258387     -0.005028680916       0.02059752417    -6.268246973e-05

***** Stress Data ******
          Element No         Integral No           Stress XX           Stress YY           Stress ZZ           Stress XY           Stress XZ           Stress YZ               Mises            YieldFlg
                   1                   1          164.194559        -90.09405791        -74.10050106         159.9443084        -10.92380248         7.996778425         371.6825181               False
                   1                   2          149.629489        -104.6591279        -44.97036113        -94.34430845        -10.92380248         29.84438338         287.7149132               False
                   1                   3         -149.629489         104.6591279         44.97036113        -94.34430845         10.92380248         29.84438338         287.7149132               False
                   1                   4         -164.194559         90.09405791         74.10050106         159.9443084         10.92380248         7.996778425         371.6825181               False
                   1                   5          164.194559        -90.09405791        -74.10050106         159.9443084         10.92380248        -7.996778425         371.6825181               False
                   1                   6          149.629489        -104.6591279        -44.97036113        -94.34430845         10.92380248        -29.84438338         287.7149132               False
                   1                   7         -149.629489         104.6591279         44.97036113        -94.34430845        -10.92380248        -29.84438338         287.7149132               False
                   1                   8         -164.194559         90.09405791         74.10050106         159.9443084        -10.92380248        -7.996778425         371.6825181               False
                   2                   1         85.34838486        -75.27154842        -10.07683643         113.1099666         7.163171948           32.597356         247.5900498               False
                   2                   2         94.89928079        -65.72065249         -29.1786283        -47.50996664         7.163171948          18.2710121         170.8558414               False
                   2                   3        -94.89928079         65.72065249          29.1786283        -47.50996664        -7.163171948          18.2710121         170.8558414               False
                   2                   4        -85.34838486         75.27154842         10.07683643         113.1099666        -7.163171948           32.597356         247.5900498               False
                   2                   5         85.34838486        -75.27154842        -10.07683643         113.1099666        -7.163171948          -32.597356         247.5900498               False
                   2                   6         94.89928079        -65.72065249         -29.1786283        -47.50996664        -7.163171948         -18.2710121         170.8558414               False
                   2                   7        -94.89928079         65.72065249          29.1786283        -47.50996664         7.163171948         -18.2710121         170.8558414               False
                   2                   8        -85.34838486         75.27154842         10.07683643         113.1099666         7.163171948          -32.597356         247.5900498               False
                   3                   1         28.38538647        -25.70233948        -2.683046989         59.84386297         2.073025575         11.50964624         115.6048473               False
                   3                   2         31.14942057        -22.93830538         -8.21111519         5.756137028         2.073025575         7.363595094         51.19346878               False
                   3                   3        -31.14942057         22.93830538          8.21111519         5.756137028        -2.073025575         7.363595094         51.19346878               False
                   3                   4        -28.38538647         25.70233948         2.683046989         59.84386297        -2.073025575         11.50964624         115.6048473               False
                   3                   5         28.38538647        -25.70233948        -2.683046989         59.84386297        -2.073025575        -11.50964624         115.6048473               False
                   3                   6         31.14942057        -22.93830538         -8.21111519         5.756137028        -2.073025575        -7.363595094         51.19346878               False
                   3                   7        -31.14942057         22.93830538          8.21111519         5.756137028         2.073025575        -7.363595094         51.19346878               False
                   3                   8        -28.38538647         25.70233948         2.683046989         59.84386297         2.073025575        -11.50964624         115.6048473               False

***** Strain Data ******
          Element No         Integral No           Strain XX           Strain YY           Strain ZZ           Strain XY           Strain XZ           Strain YZ
                   1                   1      0.001016442508    -0.0005577251204    -0.0004587173875      0.001980262866    -0.0001352470783     9.900773288e-05
                   1                   2     0.0009262777891    -0.0006478898393    -0.0002783879498      -0.00116807239    -0.0001352470783     0.0003695018895
                   1                   3    -0.0009262777891     0.0006478898393     0.0002783879498      -0.00116807239     0.0001352470783     0.0003695018895
                   1                   4     -0.001016442508     0.0005577251204     0.0004587173875      0.001980262866     0.0001352470783     9.900773288e-05
                   1                   5      0.001016442508    -0.0005577251204    -0.0004587173875      0.001980262866     0.0001352470783    -9.900773288e-05
                   1                   6     0.0009262777891    -0.0006478898393    -0.0002783879498      -0.00116807239     0.0001352470783    -0.0003695018895
                   1                   7    -0.0009262777891     0.0006478898393     0.0002783879498      -0.00116807239    -0.0001352470783    -0.0003695018895
                   1                   8     -0.001016442508     0.0005577251204     0.0004587173875      0.001980262866    -0.0001352470783    -9.900773288e-05
                   2                   1     0.0005283471444    -0.0004659667283    -6.238041602e-05      0.001400409111     8.868689078e-05     0.0004035863123
                   2                   2     0.0005874717382    -0.0004068421345    -0.0001806296037    -0.0005882186346     8.868689078e-05     0.0002262125308
                   2                   3    -0.0005874717382     0.0004068421345     0.0001806296037    -0.0005882186346    -8.868689078e-05     0.0002262125308
                   2                   4    -0.0005283471444     0.0004659667283     6.238041602e-05      0.001400409111    -8.868689078e-05     0.0004035863123
                   2                   5     0.0005283471444    -0.0004659667283    -6.238041602e-05      0.001400409111    -8.868689078e-05    -0.0004035863123
                   2                   6     0.0005874717382    -0.0004068421345    -0.0001806296037    -0.0005882186346    -8.868689078e-05    -0.0002262125308
                   2                   7    -0.0005874717382     0.0004068421345     0.0001806296037    -0.0005882186346     8.868689078e-05    -0.0002262125308
                   2                   8    -0.0005283471444     0.0004659667283     6.238041602e-05      0.001400409111     8.868689078e-05    -0.0004035863123
                   3                   1     0.0001757190591    -0.0001591097206    -1.660933851e-05     0.0007409240177     2.566603093e-05     0.0001425003821
                   3                   2     0.0001928297464    -0.0001419990333    -5.083071308e-05     7.126645844e-05     2.566603093e-05     9.116832021e-05
                   3                   3    -0.0001928297464     0.0001419990333     5.083071308e-05     7.126645844e-05    -2.566603093e-05     9.116832021e-05
                   3                   4    -0.0001757190591     0.0001591097206     1.660933851e-05     0.0007409240177    -2.566603093e-05     0.0001425003821
                   3                   5     0.0001757190591    -0.0001591097206    -1.660933851e-05     0.0007409240177    -2.566603093e-05    -0.0001425003821
                   3                   6     0.0001928297464    -0.0001419990333    -5.083071308e-05     7.126645844e-05    -2.566603093e-05    -9.116832021e-05
                   3                   7    -0.0001928297464     0.0001419990333     5.083071308e-05     7.126645844e-05     2.566603093e-05    -9.116832021e-05
                   3                   8    -0.0001757190591     0.0001591097206     1.660933851e-05     0.0007409240177     2.566603093e-05    -0.0001425003821

***** Plastic Strain Data ******
          Element No         Integral No          PStrain XX          PStrain YY          PStrain ZZ          PStrain XY          PStrain XZ          PStrain YZ
                   1                   1                   0                   0                   0                   0                   0                   0
                   1                   2                   0                   0                   0                   0                   0                   0
                   1                   3                   0                   0                   0                   0                   0                   0
                   1                   4                   0                   0                   0                   0                   0                   0
                   1                   5                   0                   0                   0                   0                   0                   0
                   1                   6                   0                   0                   0                   0                   0                   0
                   1                   7                   0                   0                   0                   0                   0                   0
                   1                   8                   0                   0                   0                   0                   0                   0
                   2                   1                   0                   0                   0                   0                   0                   0
                   2                   2                   0                   0                   0                   0                   0                   0
                   2                   3                   0                   0                   0                   0                   0                   0
                   2                   4                   0                   0                   0                   0                   0                   0
                   2                   5                   0                   0                   0                   0                   0                   0
                   2                   6                   0                   0                   0                   0                   0                   0
                   2                   7                   0                   0                   0                   0                   0                   0
                   2                   8                   0                   0                   0                   0                   0                   0
                   3                   1                   0                   0                   0                   0                   0                   0
                   3                   2                   0                   0                   0                   0                   0                   0
                   3                   3                   0                   0                   0                   0                   0                   0
                   3                   4                   0                   0                   0                   0                   0                   0
                   3                   5                   0                   0                   0                   0                   0                   0
                   3                   6                   0                   0                   0                   0                   0                   0
                   3                   7                   0                   0                   0                   0                   0                   0
                   3                   8                   0                   0                   0                   0                   0                   0

***** Reaction Force Data ******
              NodeNo           Magnitude             X Force             Y Force             Z Force----------------------------------------------------------------------------------------------------
                   1         50.66586792               -49.2                -8.2          8.89663825
                   2     2.904071806e-13    -2.273736754e-13     -1.43884904e-13    -1.092459456e-13
                   3     4.537540041e-13     3.623767952e-13     2.717825964e-13    -2.664535259e-14
                   4     2.395561912e-13     5.129230374e-14     1.634248292e-13     1.674771433e-13
                   5         50.66586792               -49.2                -8.2         -8.89663825
                   6     7.961096487e-14    -6.394884622e-14    -1.776356839e-14     4.396483178e-14
                   7     5.412342141e-13     3.730349363e-13     3.517186542e-13    -1.734168364e-13
                   8     1.756412914e-13    -3.530509218e-14      6.75015599e-14    -1.582622922e-13
                   9         50.66586792                49.2                -8.2         -8.89663825
                  10     1.498391478e-13    -7.105427358e-15     1.474376177e-13    -2.575717417e-14
                  11       2.5198541e-13      4.97379915e-14    -9.059419881e-14     2.298161661e-13
                  12     6.425107067e-13    -3.147482275e-13    -5.382361223e-13     1.550981565e-13
                  13         50.66586792                49.2                -8.2          8.89663825
                  14     2.239200669e-13     1.847411113e-13     1.261213356e-13     1.021405183e-14
                  15      3.26338798e-13     2.451372438e-13     2.131628207e-13     3.108624469e-14
                  16     4.583484267e-13    -2.513544928e-13    -3.801403636e-13    -4.896430483e-14

*Increment 83

***** Displacement Data ******
              NodeNo           Magnitude      X Displacement      Y Displacement      Z Displacement
----------------------------------------------------------------------------------------------------
                   1                   0                   0                   0                   0
                   2      0.004223659938      0.002759788779      0.003170836398    -0.0004106892987
                   3       0.01174324161      0.004502993391       0.01084466619     -0.000141383984
                   4       0.02146115197      0.005090006293       0.02084871349    -6.344689009e-05
                   5                   0                   0                   0                   0
                   6      0.004223659938      0.002759788779      0.003170836398     0.0004106892987
                   7       0.01174324161      0.004502993391       0.01084466619      0.000141383984
                   8       0.02146115197      0.005090006293       0.02084871349     6.344689009e-05
                   9                   0                   0                   0                   0
                  10      0.004223659938     -0.002759788779      0.003170836398     0.0004106892987
                  11       0.01174324161     -0.004502993391       0.01084466619      0.000141383984
                  12       0.02146115197     -0.005090006293       0.02084871349     6.344689009e-05
                  13                   0                   0                   0                   0
                  14      0.004223659938     -0.002759788779      0.003170836398    -0.0004106892987
                  15       0.01174324161     -0.004502993391       0.01084466619     -0.000141383984
                  16       0.02146115197     -0.005090006293       0.02084871349    -6.344689009e-05

***** Stress Data ******
          Element No         Integral No           Stress XX           Stress YY           Stress ZZ           Stress XY           Stress XZ           Stress YZ               Mises            YieldFlg
                   1                   1         166.1969316        -91.19276594        -75.00416571         161.8948488        -11.05701958         8.094300113         376.2152318               False
                   1                   2         151.4542389        -105.9354587        -45.51878016        -95.49484879        -11.05701958         30.20833927         291.2236316               False
                   1                   3        -151.4542389         105.9354587         45.51878016        -95.49484879         11.05701958         30.20833927         291.2236316               False
                   1                   4        -166.1969316         91.19276594         75.00416571         161.8948488         11.05701958         8.094300113         376.2152318               False
                   1                   5         166.1969316        -91.19276594        -75.00416571         161.8948488         11.05701958        -8.094300113         376.2152318               False
                   1                   6         151.4542389        -105.9354587        -45.51878016        -95.49484879         11.05701958        -30.20833927         291.2236316               False
                   1                   7        -151.4542389         105.9354587         45.51878016        -95.49484879        -11.05701958        -30.20833927         291.2236316               False
                   1                   8        -166.1969316         91.19276594         75.00416571         161.8948488        -11.05701958        -8.094300113         376.2152318               False
                   2                   1         86.38921882        -76.18949414        -10.19972468         114.4893565         7.250527703         32.99488473         250.6094407               False
                   2                   2         96.05658909        -66.52212387        -29.53446523        -48.08935648         7.250527703         18.49382932         172.9394492               False
                   2                   3        -96.05658909         66.52212387         29.53446523        -48.08935648        -7.250527703         18.49382932         172.9394492               False
                   2                   4        -86.38921882         76.18949414         10.19972468         114.4893565        -7.250527703         32.99488473         250.6094407               False
                   2                   5         86.38921882        -76.18949414        -10.19972468         114.4893565        -7.250527703        -32.99488473         250.6094407               False
                   2                   6         96.05658909        -66.52212387        -29.53446523        -48.08935648        -7.250527703        -18.49382932         172.9394492               False
                   2                   7        -96.05658909         66.52212387         29.53446523        -48.08935648         7.250527703        -18.49382932         172.9394492               False
                   2                   8        -86.38921882         76.18949414         10.19972468         114.4893565         7.250527703        -32.99488473         250.6094407               False
                   3                   1         28.73154972        -26.01578264        -2.715767075         60.57366618         2.098306375         11.65000778         117.0146625               False
                   3                   2         31.52929155        -23.21804081        -8.311250741         5.826333821         2.098306375         7.453395034         51.81777937               False
                   3                   3        -31.52929155         23.21804081         8.311250741         5.826333821        -2.098306375         7.453395034         51.81777937               False
                   3                   4        -28.73154972         26.01578264         2.715767075         60.57366618        -2.098306375         11.65000778         117.0146625               False
                   3                   5         28.73154972        -26.01578264        -2.715767075         60.57366618        -2.098306375        -11.65000778         117.0146625               False
                   3                   6         31.52929155        -23.21804081        -8.311250741         5.826333821        -2.098306375        -7.453395034         51.81777937               False
                   3                   7        -31.52929155         23.21804081         8.311250741         5.826333821         2.098306375        -7.453395034         51.81777937               False
                   3                   8        -28.73154972         26.01578264         2.715767075         60.57366618         2.098306375        -11.65000778         117.0146625               False

***** Strain Data ******
          Element No         Integral No           Strain XX           Strain YY           Strain ZZ           Strain XY           Strain XZ           Strain YZ
                   1                   1      0.001028838148    -0.0005645266463     -0.000464311502      0.002004412414    -0.0001368964329     0.0001002151443
                   1                   2     0.0009375738597    -0.0006557909349    -0.0002817829248     -0.001182317176    -0.0001368964329     0.0003740080101
                   1                   3    -0.0009375738597     0.0006557909349     0.0002817829248     -0.001182317176     0.0001368964329     0.0003740080101
                   1                   4     -0.001028838148     0.0005645266463      0.000464311502      0.002004412414     0.0001368964329     0.0001002151443
                   1                   5      0.001028838148    -0.0005645266463     -0.000464311502      0.002004412414     0.0001368964329    -0.0001002151443
                   1                   6     0.0009375738597    -0.0006557909349    -0.0002817829248     -0.001182317176     0.0001368964329    -0.0003740080101
                   1                   7    -0.0009375738597     0.0006557909349     0.0002817829248     -0.001182317176    -0.0001368964329    -0.0003740080101
                   1                   8     -0.001028838148     0.0005645266463      0.000464311502      0.002004412414    -0.0001368964329    -0.0001002151443
                   2                   1     0.0005347904022    -0.0004716492494     -6.31411528e-05      0.001417487271     8.976843823e-05     0.0004085080966
                   2                   2     0.0005946360277    -0.0004118036239    -0.0001828324038    -0.0005953920326     8.976843823e-05     0.0002289712202
                   2                   3    -0.0005946360277     0.0004118036239     0.0001828324038    -0.0005953920326    -8.976843823e-05     0.0002289712202
                   2                   4    -0.0005347904022     0.0004716492494      6.31411528e-05      0.001417487271    -8.976843823e-05     0.0004085080966
                   2                   5     0.0005347904022    -0.0004716492494     -6.31411528e-05      0.001417487271    -8.976843823e-05    -0.0004085080966
                   2                   6     0.0005946360277    -0.0004118036239    -0.0001828324038    -0.0005953920326    -8.976843823e-05    -0.0002289712202
                   2                   7    -0.0005946360277     0.0004118036239     0.0001828324038    -0.0005953920326     8.976843823e-05    -0.0002289712202
                   2                   8    -0.0005347904022     0.0004716492494      6.31411528e-05      0.001417487271     8.976843823e-05    -0.0004085080966
                   3                   1     0.0001778619744     -0.000161050083    -1.681189141e-05     0.0007499596765     2.597903131e-05     0.0001442381916
                   3                   2     0.0001951813286    -0.0001437307288    -5.145059982e-05      7.21355616e-05     2.597903131e-05     9.228012899e-05
                   3                   3    -0.0001951813286     0.0001437307288     5.145059982e-05      7.21355616e-05    -2.597903131e-05     9.228012899e-05
                   3                   4    -0.0001778619744      0.000161050083     1.681189141e-05     0.0007499596765    -2.597903131e-05     0.0001442381916
                   3                   5     0.0001778619744     -0.000161050083    -1.681189141e-05     0.0007499596765    -2.597903131e-05    -0.0001442381916
                   3                   6     0.0001951813286    -0.0001437307288    -5.145059982e-05      7.21355616e-05    -2.597903131e-05    -9.228012899e-05
                   3                   7    -0.0001951813286     0.0001437307288     5.145059982e-05      7.21355616e-05     2.597903131e-05    -9.228012899e-05
                   3                   8    -0.0001778619744      0.000161050083     1.681189141e-05     0.0007499596765     2.597903131e-05    -0.0001442381916

***** Plastic Strain Data ******
          Element No         Integral No          PStrain XX          PStrain YY          PStrain ZZ          PStrain XY          PStrain XZ          PStrain YZ
                   1                   1                   0                   0                   0                   0                   0                   0
                   1                   2                   0                   0                   0                   0                   0                   0
                   1                   3                   0                   0                   0                   0                   0                   0
                   1                   4                   0                   0                   0                   0                   0                   0
                   1                   5                   0                   0                   0                   0                   0                   0
                   1                   6                   0                   0                   0                   0                   0                   0
                   1                   7                   0                   0                   0                   0                   0                   0
                   1                   8                   0                   0                   0                   0                   0                   0
                   2                   1                   0                   0                   0                   0                   0                   0
                   2                   2                   0                   0                   0                   0                   0                   0
                   2                   3                   0                   0                   0                   0                   0                   0
                   2                   4                   0                   0                   0                   0                   0                   0
                   2                   5                   0                   0                   0                   0                   0                   0
                   2                   6                   0                   0                   0                   0                   0                   0
                   2                   7                   0                   0                   0                   0                   0                   0
                   2                   8                   0                   0                   0                   0                   0                   0
                   3                   1                   0                   0                   0                   0                   0                   0
                   3                   2                   0                   0                   0                   0                   0                   0
                   3                   3                   0                   0                   0                   0                   0                   0
                   3                   4                   0                   0                   0                   0                   0                   0
                   3                   5                   0                   0                   0                   0                   0                   0
                   3                   6                   0                   0                   0                   0                   0                   0
                   3                   7                   0                   0                   0                   0                   0                   0
                   3                   8                   0                   0                   0                   0                   0                   0

***** Reaction Force Data ******
              NodeNo           Magnitude             X Force             Y Force             Z Force----------------------------------------------------------------------------------------------------
                   1         51.28374436               -49.8                -8.3         9.005133838
                   2     3.165904471e-13    -2.629008122e-13    -1.456612608e-13    -9.947598301e-14
                   3     4.636087699e-13     3.304023721e-13     3.232969448e-13     3.530509218e-14
                   4     3.518337925e-13    -3.330669074e-15     2.753353101e-13     2.190123083e-13
                   5         51.28374436               -49.8                -8.3        -9.005133838
                   6     8.224287578e-14    -7.815970093e-14     1.598721155e-14     1.998401444e-14
                   7      6.67581896e-13     3.943512183e-13     4.742872761e-13    -2.553512957e-13
                   8     2.753273471e-13    -8.948397578e-14     1.580957587e-13    -2.068900606e-13
                   9         51.28374436                49.8                -8.3        -9.005133838
                  10     1.043826941e-13     1.421085472e-14     1.030286967e-13    -8.881784197e-15
                  11     3.906017059e-13     1.136868377e-13    -1.900701818e-13     3.217426325e-13
                  12     6.938674577e-13    -3.144151606e-13    -5.826450433e-13      2.07653339e-13
                  13         51.28374436                49.8                -8.3         9.005133838
                  14     2.106762207e-13     1.918465387e-13     8.704148513e-14    -1.776356839e-15
                  15      3.59952317e-13     3.446132268e-13     9.947598301e-14    -3.019806627e-14
                  16     5.343733021e-13    -2.913225217e-13    -4.369837825e-13    -9.864678518e-14

*Increment 84

***** Displacement Data ******
              NodeNo           Magnitude      X Displacement      Y Displacement      Z Displacement
----------------------------------------------------------------------------------------------------
                   1                   0                   0                   0                   0
                   2      0.004274547407      0.002793039246      0.003209039246    -0.0004156373625
                   3       0.01188472645      0.004557246323       0.01097532482    -0.0001430874055
                   4       0.02171972006       0.00515133167       0.02109990281    -6.421131045e-05
                   5                   0                   0                   0                   0
                   6      0.004274547407      0.002793039246      0.003209039246     0.0004156373625
                   7       0.01188472645      0.004557246323       0.01097532482     0.0001430874055
                   8       0.02171972006       0.00515133167       0.02109990281     6.421131045e-05
                   9                   0                   0                   0                   0
                  10      0.004274547407     -0.002793039246      0.003209039246     0.0004156373625
                  11       0.01188472645     -0.004557246323       0.01097532482     0.0001430874055
                  12       0.02171972006      -0.00515133167       0.02109990281     6.421131045e-05
                  13                   0                   0                   0                   0
                  14      0.004274547407     -0.002793039246      0.003209039246    -0.0004156373625
                  15       0.01188472645     -0.004557246323       0.01097532482    -0.0001430874055
                  16       0.02171972006      -0.00515133167       0.02109990281    -6.421131045e-05

***** Stress Data ******
          Element No         Integral No           Stress XX           Stress YY           Stress ZZ           Stress XY           Stress XZ           Stress YZ               Mises            YieldFlg
                   1                   1         168.1993043        -92.29147396        -75.90783036         163.8453891        -11.19023668         8.191821801         380.7479454               False
                   1                   2         153.2789887        -107.2117895         -46.0671992        -96.64538914        -11.19023668         30.57229517         294.7323501               False
                   1                   3        -153.2789887         107.2117895          46.0671992        -96.64538914         11.19023668         30.57229517         294.7323501               False
                   1                   4        -168.1993043         92.29147396         75.90783036         163.8453891         11.19023668         8.191821801         380.7479454               False
                   1                   5         168.1993043        -92.29147396        -75.90783036         163.8453891         11.19023668        -8.191821801         380.7479454               False
                   1                   6         153.2789887        -107.2117895         -46.0671992        -96.64538914         11.19023668        -30.57229517         294.7323501               False
                   1                   7        -153.2789887         107.2117895          46.0671992        -96.64538914        -11.19023668        -30.57229517         294.7323501               False
                   1                   8        -168.1993043         92.29147396         75.90783036         163.8453891        -11.19023668        -8.191821801         380.7479454               False
                   2                   1         87.43005278        -77.10743985        -10.32261293         115.8687463         7.337883459         33.39241346         253.6288315               False
                   2                   2         97.21389739        -67.32359524        -29.89030216        -48.66874632         7.337883459         18.71664654         175.0230571               False
                   2                   3        -97.21389739         67.32359524         29.89030216        -48.66874632        -7.337883459         18.71664654         175.0230571               False
                   2                   4        -87.43005278         77.10743985         10.32261293         115.8687463        -7.337883459         33.39241346         253.6288315               False
                   2                   5         87.43005278        -77.10743985        -10.32261293         115.8687463        -7.337883459        -33.39241346         253.6288315               False
                   2                   6         97.21389739        -67.32359524        -29.89030216        -48.66874632        -7.337883459        -18.71664654         175.0230571               False
                   2                   7        -97.21389739         67.32359524         29.89030216        -48.66874632         7.337883459        -18.71664654         175.0230571               False
                   2                   8        -87.43005278         77.10743985         10.32261293         115.8687463         7.337883459        -33.39241346         253.6288315               False
                   3                   1         29.07771297        -26.32922581         -2.74848716         61.30346939         2.123587174         11.79036932         118.4244777               False
                   3                   2         31.90916253        -23.49777624        -8.411386292         5.896530614         2.123587174         7.543194974         52.44208997               False
                   3                   3        -31.90916253         23.49777624         8.411386292         5.896530614        -2.123587174         7.543194974         52.44208997               False
                   3                   4        -29.07771297         26.32922581          2.74848716         61.30346939        -2.123587174         11.79036932         118.4244777               False
                   3                   5         29.07771297        -26.32922581         -2.74848716         61.30346939        -2.123587174        -11.79036932         118.4244777               False
                   3                   6         31.90916253        -23.49777624        -8.411386292         5.896530614        -2.123587174        -7.543194974         52.44208997               False
                   3                   7        -31.90916253         23.49777624         8.411386292         5.896530614         2.123587174        -7.543194974         52.44208997               False
                   3                   8        -29.07771297         26.32922581          2.74848716         61.30346939         2.123587174        -11.79036932         118.4244777               False

***** Strain Data ******
          Element No         Integral No           Strain XX           Strain YY           Strain ZZ           Strain XY           Strain XZ           Strain YZ
                   1                   1      0.001041233789    -0.0005713281721    -0.0004699056165      0.002028561961    -0.0001385457875     0.0001014225556
                   1                   2     0.0009488699303    -0.0006636920305    -0.0002851778998     -0.001196561961    -0.0001385457875     0.0003785141307
                   1                   3    -0.0009488699303     0.0006636920305     0.0002851778998     -0.001196561961     0.0001385457875     0.0003785141307
                   1                   4     -0.001041233789     0.0005713281721     0.0004699056165      0.002028561961     0.0001385457875     0.0001014225556
                   1                   5      0.001041233789    -0.0005713281721    -0.0004699056165      0.002028561961     0.0001385457875    -0.0001014225556
                   1                   6     0.0009488699303    -0.0006636920305    -0.0002851778998     -0.001196561961     0.0001385457875    -0.0003785141307
                   1                   7    -0.0009488699303     0.0006636920305     0.0002851778998     -0.001196561961    -0.0001385457875    -0.0003785141307
                   1                   8     -0.001041233789     0.0005713281721     0.0004699056165      0.002028561961    -0.0001385457875    -0.0001014225556
                   2                   1     0.0005412336601    -0.0004773317705    -6.390188958e-05      0.001434565431     9.084998568e-05     0.0004134298809
                   2                   2     0.0006018003172    -0.0004167651134    -0.0001850352038    -0.0006025654306     9.084998568e-05     0.0002317299096
                   2                   3    -0.0006018003172     0.0004167651134     0.0001850352038    -0.0006025654306    -9.084998568e-05     0.0002317299096
                   2                   4    -0.0005412336601     0.0004773317705     6.390188958e-05      0.001434565431    -9.084998568e-05     0.0004134298809
                   2                   5     0.0005412336601    -0.0004773317705    -6.390188958e-05      0.001434565431    -9.084998568e-05    -0.0004134298809
                   2                   6     0.0006018003172    -0.0004167651134    -0.0001850352038    -0.0006025654306    -9.084998568e-05    -0.0002317299096
                   2                   7    -0.0006018003172     0.0004167651134     0.0001850352038    -0.0006025654306     9.084998568e-05    -0.0002317299096
                   2                   8    -0.0005412336601     0.0004773317705     6.390188958e-05      0.001434565431     9.084998568e-05    -0.0004134298809
                   3                   1     0.0001800048898    -0.0001629904455    -1.701444432e-05     0.0007589953353     2.629203168e-05     0.0001459760011
                   3                   2     0.0001975329109    -0.0001454624243    -5.207048657e-05     7.300466475e-05     2.629203168e-05     9.339193777e-05
                   3                   3    -0.0001975329109     0.0001454624243     5.207048657e-05     7.300466475e-05    -2.629203168e-05     9.339193777e-05
                   3                   4    -0.0001800048898     0.0001629904455     1.701444432e-05     0.0007589953353    -2.629203168e-05     0.0001459760011
                   3                   5     0.0001800048898    -0.0001629904455    -1.701444432e-05     0.0007589953353    -2.629203168e-05    -0.0001459760011
                   3                   6     0.0001975329109    -0.0001454624243    -5.207048657e-05     7.300466475e-05    -2.629203168e-05    -9.339193777e-05
                   3                   7    -0.0001975329109     0.0001454624243     5.207048657e-05     7.300466475e-05     2.629203168e-05    -9.339193777e-05
                   3                   8    -0.0001800048898     0.0001629904455     1.701444432e-05     0.0007589953353     2.629203168e-05    -0.0001459760011

***** Plastic Strain Data ******
          Element No         Integral No          PStrain XX          PStrain YY          PStrain ZZ          PStrain XY          PStrain XZ          PStrain YZ
                   1                   1                   0                   0                   0                   0                   0                   0
                   1                   2                   0                   0                   0                   0                   0                   0
                   1                   3                   0                   0                   0                   0                   0                   0
                   1                   4                   0                   0                   0                   0                   0                   0
                   1                   5                   0                   0                   0                   0                   0                   0
                   1                   6                   0                   0                   0                   0                   0                   0
                   1                   7                   0                   0                   0                   0                   0                   0
                   1                   8                   0                   0                   0                   0                   0                   0
                   2                   1                   0                   0                   0                   0                   0                   0
                   2                   2                   0                   0                   0                   0                   0                   0
                   2                   3                   0                   0                   0                   0                   0                   0
                   2                   4                   0                   0                   0                   0                   0                   0
                   2                   5                   0                   0                   0                   0                   0                   0
                   2                   6                   0                   0                   0                   0                   0                   0
                   2                   7                   0                   0                   0                   0                   0                   0
                   2                   8                   0                   0                   0                   0                   0                   0
                   3                   1                   0                   0                   0                   0                   0                   0
                   3                   2                   0                   0                   0                   0                   0                   0
                   3                   3                   0                   0                   0                   0                   0                   0
                   3                   4                   0                   0                   0                   0                   0                   0
                   3                   5                   0                   0                   0                   0                   0                   0
                   3                   6                   0                   0                   0                   0                   0                   0
                   3                   7                   0                   0                   0                   0                   0                   0
                   3                   8                   0                   0                   0                   0                   0                   0

***** Reaction Force Data ******
              NodeNo           Magnitude             X Force             Y Force             Z Force----------------------------------------------------------------------------------------------------
                   1          51.9016208               -50.4                -8.4         9.113629427
                   2     2.883944871e-13    -2.415845302e-13    -1.278976924e-13    -9.192646644e-14
                   3     3.858126447e-13     3.161915174e-13     2.202682481e-13    -1.887379142e-14
                   4     2.423094006e-13     6.827871601e-14     1.634248292e-13     1.653607806e-13
                   5          51.9016208               -50.4                -8.4        -9.113629427
                   6     7.378298657e-14    -6.394884622e-14    -5.329070518e-15     3.641531521e-14
                   7     5.527988521e-13     3.481659405e-13     3.836930773e-13    -1.927347171e-13
                   8     2.256605862e-13    -4.773959006e-14     1.190159082e-13    -1.856848009e-13
                   9          51.9016208                50.4                -8.4        -9.113629427
                  10     1.574557732e-13    -2.131628207e-14      1.54543045e-13    -2.131628207e-14
                  11     3.028428751e-13     3.552713679e-14    -9.237055565e-14     2.862154957e-13
                  12     6.472348119e-13    -3.077538224e-13    -5.488942634e-13     1.513789094e-13
                  13          51.9016208                50.4                -8.4         9.113629427
                  14     2.025752737e-13     1.705302566e-13     1.083577672e-13    -1.465494393e-14
                  15      3.26212167e-13     2.842170943e-13     1.580957587e-13     2.531308496e-14
                  16     4.548433073e-13    -2.660094367e-13    -3.677058658e-13    -3.022929129e-14

*Increment 85

***** Displacement Data ******
              NodeNo           Magnitude      X Displacement      Y Displacement      Z Displacement
----------------------------------------------------------------------------------------------------
                   1                   0                   0                   0                   0
                   2      0.004325434876      0.002826289714      0.003247242095    -0.0004205854264
                   3       0.01202621129      0.004611499255       0.01110598344     -0.000144790827
                   4       0.02197828816      0.005212657047       0.02135109213    -6.497573081e-05
                   5                   0                   0                   0                   0
                   6      0.004325434876      0.002826289714      0.003247242095     0.0004205854264
                   7       0.01202621129      0.004611499255       0.01110598344      0.000144790827
                   8       0.02197828816      0.005212657047       0.02135109213     6.497573081e-05
                   9                   0                   0                   0                   0
                  10      0.004325434876     -0.002826289714      0.003247242095     0.0004205854264
                  11       0.01202621129     -0.004611499255       0.01110598344      0.000144790827
                  12       0.02197828816     -0.005212657047       0.02135109213     6.497573081e-05
                  13                   0                   0                   0                   0
                  14      0.004325434876     -0.002826289714      0.003247242095    -0.0004205854264
                  15       0.01202621129     -0.004611499255       0.01110598344     -0.000144790827
                  16       0.02197828816     -0.005212657047       0.02135109213    -6.497573081e-05

***** Stress Data ******
          Element No         Integral No           Stress XX           Stress YY           Stress ZZ           Stress XY           Stress XZ           Stress YZ               Mises            YieldFlg
                   1                   1          170.201677        -93.39018198        -76.81149501         165.7959295        -11.32345379         8.289343489          385.280659               False
                   1                   2         155.1037386        -108.4881204        -46.61561824        -97.79592949        -11.32345379         30.93625106         298.2410685               False
                   1                   3        -155.1037386         108.4881204         46.61561824        -97.79592949         11.32345379         30.93625106         298.2410685               False
                   1                   4         -170.201677         93.39018198         76.81149501         165.7959295         11.32345379         8.289343489          385.280659               False
                   1                   5          170.201677        -93.39018198        -76.81149501         165.7959295         11.32345379        -8.289343489          385.280659               False
                   1                   6         155.1037386        -108.4881204        -46.61561824        -97.79592949         11.32345379        -30.93625106         298.2410685               False
                   1                   7        -155.1037386         108.4881204         46.61561824        -97.79592949        -11.32345379        -30.93625106         298.2410685               False
                   1                   8         -170.201677         93.39018198         76.81149501         165.7959295        -11.32345379        -8.289343489          385.280659               False
                   2                   1         88.47088674        -78.02538556        -10.44550118         117.2481362         7.425239214         33.78994219         256.6482224               False
                   2                   2          98.3712057        -68.12506661        -30.24613909        -49.24813615         7.425239214         18.93946376         177.1066649               False
                   2                   3         -98.3712057         68.12506661         30.24613909        -49.24813615        -7.425239214         18.93946376         177.1066649               False
                   2                   4        -88.47088674         78.02538556         10.44550118         117.2481362        -7.425239214         33.78994219         256.6482224               False
                   2                   5         88.47088674        -78.02538556        -10.44550118         117.2481362        -7.425239214        -33.78994219         256.6482224               False
                   2                   6          98.3712057        -68.12506661        -30.24613909        -49.24813615        -7.425239214        -18.93946376         177.1066649               False
                   2                   7         -98.3712057         68.12506661         30.24613909        -49.24813615         7.425239214        -18.93946376         177.1066649               False
                   2                   8        -88.47088674         78.02538556         10.44550118         117.2481362         7.425239214        -33.78994219         256.6482224               False
                   3                   1         29.42387622        -26.64266897        -2.781207245         62.03327259         2.148867974         11.93073086         119.8342929               False
                   3                   2         32.28903351        -23.77751167        -8.511521843         5.966727407         2.148867974         7.632994914         53.06640056               False
                   3                   3        -32.28903351         23.77751167         8.511521843         5.966727407        -2.148867974         7.632994914         53.06640056               False
                   3                   4        -29.42387622         26.64266897         2.781207245         62.03327259        -2.148867974         11.93073086         119.8342929               False
                   3                   5         29.42387622        -26.64266897        -2.781207245         62.03327259        -2.148867974        -11.93073086         119.8342929               False
                   3                   6         32.28903351        -23.77751167        -8.511521843         5.966727407        -2.148867974        -7.632994914         53.06640056               False
                   3                   7        -32.28903351         23.77751167         8.511521843         5.966727407         2.148867974        -7.632994914         53.06640056               False
                   3                   8        -29.42387622         26.64266897         2.781207245         62.03327259         2.148867974        -11.93073086         119.8342929               False

***** Strain Data ******
          Element No         Integral No           Strain XX           Strain YY           Strain ZZ           Strain XY           Strain XZ           Strain YZ
                   1                   1      0.001053629429     -0.000578129698     -0.000475499731      0.002052711508    -0.0001401951421      0.000102629967
                   1                   2     0.0009601660009    -0.0006715931261    -0.0002885728748     -0.001210806746    -0.0001401951421     0.0003830202513
                   1                   3    -0.0009601660009     0.0006715931261     0.0002885728748     -0.001210806746     0.0001401951421     0.0003830202513
                   1                   4     -0.001053629429      0.000578129698      0.000475499731      0.002052711508     0.0001401951421      0.000102629967
                   1                   5      0.001053629429     -0.000578129698     -0.000475499731      0.002052711508     0.0001401951421     -0.000102629967
                   1                   6     0.0009601660009    -0.0006715931261    -0.0002885728748     -0.001210806746     0.0001401951421    -0.0003830202513
                   1                   7    -0.0009601660009     0.0006715931261     0.0002885728748     -0.001210806746    -0.0001401951421    -0.0003830202513
                   1                   8     -0.001053629429      0.000578129698      0.000475499731      0.002052711508    -0.0001401951421     -0.000102629967
                   2                   1     0.0005476769179    -0.0004830142916    -6.466262636e-05       0.00145164359     9.193153313e-05     0.0004183516652
                   2                   2     0.0006089646067    -0.0004217266028    -0.0001872380039    -0.0006097388286     9.193153313e-05      0.000234488599
                   2                   3    -0.0006089646067     0.0004217266028     0.0001872380039    -0.0006097388286    -9.193153313e-05      0.000234488599
                   2                   4    -0.0005476769179     0.0004830142916     6.466262636e-05       0.00145164359    -9.193153313e-05     0.0004183516652
                   2                   5     0.0005476769179    -0.0004830142916    -6.466262636e-05       0.00145164359    -9.193153313e-05    -0.0004183516652
                   2                   6     0.0006089646067    -0.0004217266028    -0.0001872380039    -0.0006097388286    -9.193153313e-05     -0.000234488599
                   2                   7    -0.0006089646067     0.0004217266028     0.0001872380039    -0.0006097388286     9.193153313e-05     -0.000234488599
                   2                   8    -0.0005476769179     0.0004830142916     6.466262636e-05       0.00145164359     9.193153313e-05    -0.0004183516652
                   3                   1     0.0001821478051    -0.0001649308079    -1.721699723e-05      0.000768030994     2.660503206e-05     0.0001477138107
                   3                   2     0.0001998844932    -0.0001471941199    -5.269037331e-05      7.38737679e-05     2.660503206e-05     9.450374656e-05
                   3                   3    -0.0001998844932     0.0001471941199     5.269037331e-05      7.38737679e-05    -2.660503206e-05     9.450374656e-05
                   3                   4    -0.0001821478051     0.0001649308079     1.721699723e-05      0.000768030994    -2.660503206e-05     0.0001477138107
                   3                   5     0.0001821478051    -0.0001649308079    -1.721699723e-05      0.000768030994    -2.660503206e-05    -0.0001477138107
                   3                   6     0.0001998844932    -0.0001471941199    -5.269037331e-05      7.38737679e-05    -2.660503206e-05    -9.450374656e-05
                   3                   7    -0.0001998844932     0.0001471941199     5.269037331e-05      7.38737679e-05     2.660503206e-05    -9.450374656e-05
                   3                   8    -0.0001821478051     0.0001649308079     1.721699723e-05      0.000768030994     2.660503206e-05    -0.0001477138107

***** Plastic Strain Data ******
          Element No         Integral No          PStrain XX          PStrain YY          PStrain ZZ          PStrain XY          PStrain XZ          PStrain YZ
                   1                   1                   0                   0                   0                   0                   0                   0
                   1                   2                   0                   0                   0                   0                   0                   0
                   1                   3                   0                   0                   0                   0                   0                   0
                   1                   4                   0                   0                   0                   0                   0                   0
                   1                   5                   0                   0                   0                   0                   0                   0
                   1                   6                   0                   0                   0                   0                   0                   0
                   1                   7                   0                   0                   0                   0                   0                   0
                   1                   8                   0                   0                   0                   0                   0                   0
                   2                   1                   0                   0                   0                   0                   0                   0
                   2                   2                   0                   0                   0                   0                   0                   0
                   2                   3                   0                   0                   0                   0                   0                   0
                   2                   4                   0                   0                   0                   0                   0                   0
                   2                   5                   0                   0                   0                   0                   0                   0
                   2                   6                   0                   0                   0                   0                   0                   0
                   2                   7                   0                   0                   0                   0                   0                   0
                   2                   8                   0                   0                   0                   0                   0                   0
                   3                   1                   0                   0                   0                   0                   0                   0
                   3                   2                   0                   0                   0                   0                   0                   0
                   3                   3                   0                   0                   0                   0                   0                   0
                   3                   4                   0                   0                   0                   0                   0                   0
                   3                   5                   0                   0                   0                   0                   0                   0
                   3                   6                   0                   0                   0                   0                   0                   0
                   3                   7                   0                   0                   0                   0                   0                   0
                   3                   8                   0                   0                   0                   0                   0                   0

***** Reaction Force Data ******
              NodeNo           Magnitude             X Force             Y Force             Z Force----------------------------------------------------------------------------------------------------
                   1         52.51949723                 -51                -8.5         9.222125015
                   2      3.00877568e-13    -2.557953849e-13    -1.225686219e-13    -1.003641614e-13
                   3     4.564554477e-13     3.375077995e-13     3.073097332e-13     8.881784197e-16
                   4     2.799879294e-13     1.199040867e-14     2.167155344e-13     1.768724056e-13
                   5         52.51949723                 -51                -8.5        -9.222125015
                   6     6.582265041e-14    -5.684341886e-14    -7.105427358e-15     3.241851232e-14
                   7     5.919984426e-13     3.588240816e-13     4.174438573e-13    -2.178257574e-13
                   8     3.015113155e-13    -1.263433802e-13     1.811883976e-13    -2.052247261e-13
                   9         52.51949723                  51                -8.5        -9.222125015
                  10     1.352745594e-13    -1.421085472e-14      1.33226763e-13    -1.865174681e-14
                  11      4.12608588e-13     1.030286967e-13    -2.291500323e-13     3.272937477e-13
                  12     6.749513862e-13    -3.129718706e-13    -5.631051181e-13     2.012973122e-13
                  13         52.51949723                  51                -8.5         9.222125015
                  14     2.219704296e-13      1.98951966e-13     9.769962617e-14    -1.199040867e-14
                  15     3.758916117e-13     3.552713679e-13     1.225686219e-13     7.327471963e-15
                  16      4.89020569e-13    -2.859934511e-13    -3.890221478e-13    -7.752826159e-14

*Increment 86

***** Displacement Data ******
              NodeNo           Magnitude      X Displacement      Y Displacement      Z Displacement
----------------------------------------------------------------------------------------------------
                   1                   0                   0                   0                   0
                   2      0.004376322345      0.002859540181      0.003285444943    -0.0004255334902
                   3       0.01216769613      0.004665752188       0.01123664207    -0.0001464942485
                   4       0.02223685626      0.005273982424       0.02160228145    -6.574015118e-05
                   5                   0                   0                   0                   0
                   6      0.004376322345      0.002859540181      0.003285444943     0.0004255334902
                   7       0.01216769613      0.004665752188       0.01123664207     0.0001464942485
                   8       0.02223685626      0.005273982424       0.02160228145     6.574015118e-05
                   9                   0                   0                   0                   0
                  10      0.004376322345     -0.002859540181      0.003285444943     0.0004255334902
                  11       0.01216769613     -0.004665752188       0.01123664207     0.0001464942485
                  12       0.02223685626     -0.005273982424       0.02160228145     6.574015118e-05
                  13                   0                   0                   0                   0
                  14      0.004376322345     -0.002859540181      0.003285444943    -0.0004255334902
                  15       0.01216769613     -0.004665752188       0.01123664207    -0.0001464942485
                  16       0.02223685626     -0.005273982424       0.02160228145    -6.574015118e-05

***** Stress Data ******
          Element No         Integral No           Stress XX           Stress YY           Stress ZZ           Stress XY           Stress XZ           Stress YZ               Mises            YieldFlg
                   1                   1         172.2040497        -94.48889001        -77.71515965         167.7464698        -11.45667089         8.386865178         389.8133727               False
                   1                   2         156.9284885        -109.7644512        -47.16403728        -98.94646983        -11.45667089         31.30020696          301.749787               False
                   1                   3        -156.9284885         109.7644512         47.16403728        -98.94646983         11.45667089         31.30020696          301.749787               False
                   1                   4        -172.2040497         94.48889001         77.71515965         167.7464698         11.45667089         8.386865178         389.8133727               False
                   1                   5         172.2040497        -94.48889001        -77.71515965         167.7464698         11.45667089        -8.386865178         389.8133727               False
                   1                   6         156.9284885        -109.7644512        -47.16403728        -98.94646983         11.45667089        -31.30020696          301.749787               False
                   1                   7        -156.9284885         109.7644512         47.16403728        -98.94646983        -11.45667089        -31.30020696          301.749787               False
                   1                   8        -172.2040497         94.48889001         77.71515965         167.7464698        -11.45667089        -8.386865178         389.8133727               False
                   2                   1         89.51172071        -78.94333127        -10.56838943          118.627526          7.51259497         34.18747092         259.6676132               False
                   2                   2           99.528514        -68.92653798        -30.60197602        -49.82752599          7.51259497         19.16228098         179.1902727               False
                   2                   3          -99.528514         68.92653798         30.60197602        -49.82752599         -7.51259497         19.16228098         179.1902727               False
                   2                   4        -89.51172071         78.94333127         10.56838943          118.627526         -7.51259497         34.18747092         259.6676132               False
                   2                   5         89.51172071        -78.94333127        -10.56838943          118.627526         -7.51259497        -34.18747092         259.6676132               False
                   2                   6           99.528514        -68.92653798        -30.60197602        -49.82752599         -7.51259497        -19.16228098         179.1902727               False
                   2                   7          -99.528514         68.92653798         30.60197602        -49.82752599          7.51259497        -19.16228098         179.1902727               False
                   2                   8        -89.51172071         78.94333127         10.56838943          118.627526          7.51259497        -34.18747092         259.6676132               False
                   3                   1         29.77003946        -26.95611213         -2.81392733          62.7630758         2.174148774          12.0710924         121.2441082               False
                   3                   2          32.6689045         -24.0572471        -8.611657394           6.0369242         2.174148774         7.722794854         53.69071116               False
                   3                   3         -32.6689045          24.0572471         8.611657394           6.0369242        -2.174148774         7.722794854         53.69071116               False
                   3                   4        -29.77003946         26.95611213          2.81392733          62.7630758        -2.174148774          12.0710924         121.2441082               False
                   3                   5         29.77003946        -26.95611213         -2.81392733          62.7630758        -2.174148774         -12.0710924         121.2441082               False
                   3                   6          32.6689045         -24.0572471        -8.611657394           6.0369242        -2.174148774        -7.722794854         53.69071116               False
                   3                   7         -32.6689045          24.0572471         8.611657394           6.0369242         2.174148774        -7.722794854         53.69071116               False
                   3                   8        -29.77003946         26.95611213          2.81392733          62.7630758         2.174148774         -12.0710924         121.2441082               False

***** Strain Data ******
          Element No         Integral No           Strain XX           Strain YY           Strain ZZ           Strain XY           Strain XZ           Strain YZ
                   1                   1      0.001066025069    -0.0005849312239    -0.0004810938455      0.002076861055    -0.0001418444967     0.0001038373784
                   1                   2     0.0009714620715    -0.0006794942217    -0.0002919678498     -0.001225051531    -0.0001418444967     0.0003875263719
                   1                   3    -0.0009714620715     0.0006794942217     0.0002919678498     -0.001225051531     0.0001418444967     0.0003875263719
                   1                   4     -0.001066025069     0.0005849312239     0.0004810938455      0.002076861055     0.0001418444967     0.0001038373784
                   1                   5      0.001066025069    -0.0005849312239    -0.0004810938455      0.002076861055     0.0001418444967    -0.0001038373784
                   1                   6     0.0009714620715    -0.0006794942217    -0.0002919678498     -0.001225051531     0.0001418444967    -0.0003875263719
                   1                   7    -0.0009714620715     0.0006794942217     0.0002919678498     -0.001225051531    -0.0001418444967    -0.0003875263719
                   1                   8     -0.001066025069     0.0005849312239     0.0004810938455      0.002076861055    -0.0001418444967    -0.0001038373784
                   2                   1     0.0005541201758    -0.0004886968126    -6.542336314e-05       0.00146872175     9.301308058e-05     0.0004232734495
                   2                   2     0.0006161288962    -0.0004266880923    -0.0001894408039    -0.0006169122265     9.301308058e-05     0.0002372472884
                   2                   3    -0.0006161288962     0.0004266880923     0.0001894408039    -0.0006169122265    -9.301308058e-05     0.0002372472884
                   2                   4    -0.0005541201758     0.0004886968126     6.542336314e-05       0.00146872175    -9.301308058e-05     0.0004232734495
                   2                   5     0.0005541201758    -0.0004886968126    -6.542336314e-05       0.00146872175    -9.301308058e-05    -0.0004232734495
                   2                   6     0.0006161288962    -0.0004266880923    -0.0001894408039    -0.0006169122265    -9.301308058e-05    -0.0002372472884
                   2                   7    -0.0006161288962     0.0004266880923     0.0001894408039    -0.0006169122265     9.301308058e-05    -0.0002372472884
                   2                   8    -0.0005541201758     0.0004886968126     6.542336314e-05       0.00146872175     9.301308058e-05    -0.0004232734495
                   3                   1     0.0001842907205    -0.0001668711704    -1.741955014e-05     0.0007770666528     2.691803244e-05     0.0001494516202
                   3                   2     0.0002022360755    -0.0001489258154    -5.331026006e-05     7.474287105e-05     2.691803244e-05     9.561555534e-05
                   3                   3    -0.0002022360755     0.0001489258154     5.331026006e-05     7.474287105e-05    -2.691803244e-05     9.561555534e-05
                   3                   4    -0.0001842907205     0.0001668711704     1.741955014e-05     0.0007770666528    -2.691803244e-05     0.0001494516202
                   3                   5     0.0001842907205    -0.0001668711704    -1.741955014e-05     0.0007770666528    -2.691803244e-05    -0.0001494516202
                   3                   6     0.0002022360755    -0.0001489258154    -5.331026006e-05     7.474287105e-05    -2.691803244e-05    -9.561555534e-05
                   3                   7    -0.0002022360755     0.0001489258154     5.331026006e-05     7.474287105e-05     2.691803244e-05    -9.561555534e-05
                   3                   8    -0.0001842907205     0.0001668711704     1.741955014e-05     0.0007770666528     2.691803244e-05    -0.0001494516202

***** Plastic Strain Data ******
          Element No         Integral No          PStrain XX          PStrain YY          PStrain ZZ          PStrain XY          PStrain XZ          PStrain YZ
                   1                   1                   0                   0                   0                   0                   0                   0
                   1                   2                   0                   0                   0                   0                   0                   0
                   1                   3                   0                   0                   0                   0                   0                   0
                   1                   4                   0                   0                   0                   0                   0                   0
                   1                   5                   0                   0                   0                   0                   0                   0
                   1                   6                   0                   0                   0                   0                   0                   0
                   1                   7                   0                   0                   0                   0                   0                   0
                   1                   8                   0                   0                   0                   0                   0                   0
                   2                   1                   0                   0                   0                   0                   0                   0
                   2                   2                   0                   0                   0                   0                   0                   0
                   2                   3                   0                   0                   0                   0                   0                   0
                   2                   4                   0                   0                   0                   0                   0                   0
                   2                   5                   0                   0                   0                   0                   0                   0
                   2                   6                   0                   0                   0                   0                   0                   0
                   2                   7                   0                   0                   0                   0                   0                   0
                   2                   8                   0                   0                   0                   0                   0                   0
                   3                   1                   0                   0                   0                   0                   0                   0
                   3                   2                   0                   0                   0                   0                   0                   0
                   3                   3                   0                   0                   0                   0                   0                   0
                   3                   4                   0                   0                   0                   0                   0                   0
                   3                   5                   0                   0                   0                   0                   0                   0
                   3                   6                   0                   0                   0                   0                   0                   0
                   3                   7                   0                   0                   0                   0                   0                   0
                   3                   8                   0                   0                   0                   0                   0                   0

***** Reaction Force Data ******
              NodeNo           Magnitude             X Force             Y Force             Z Force----------------------------------------------------------------------------------------------------
                   1         53.13737367               -51.6                -8.6         9.330620604
                   2     2.579405311e-13    -2.486899575e-13    -4.796163466e-14    -4.884981308e-14
                   3     3.214432924e-13     1.918465387e-13     2.575717417e-13      1.33226763e-14
                   4     2.466870034e-13     4.607425552e-14     2.025046797e-13     1.331296184e-13
                   5         53.13737367               -51.6                -8.6        -9.330620604
                   6     9.954336658e-14     -4.97379915e-14     8.171241461e-14    -2.753353101e-14
                   7     5.000407035e-13     2.522426712e-13     3.694822226e-13    -2.233768726e-13
                   8     2.317225159e-13    -1.019184737e-13     1.350031198e-13    -1.583733145e-13
                   9         53.13737367                51.6                -8.6        -9.330620604
                  10       7.6322645e-14     2.131628207e-14     6.572520306e-14     3.241851232e-14
                  11     4.035989167e-13     3.197442311e-14    -2.504663144e-13     3.148592498e-13
                  12     5.450062751e-13     -2.20601315e-13    -4.689582056e-13     1.686567552e-13
                  13         53.13737367                51.6                -8.6         9.330620604
                  14     2.277013021e-13     2.131628207e-13     4.440892099e-14    -6.661338148e-14
                  15     3.489560778e-13     3.410605132e-13     7.105427358e-14     1.998401444e-14
                  16     3.638348044e-13    -2.446931546e-13    -2.646771691e-13    -4.946737464e-14

*Increment 87

***** Displacement Data ******
              NodeNo           Magnitude      X Displacement      Y Displacement      Z Displacement
----------------------------------------------------------------------------------------------------
                   1                   0                   0                   0                   0
                   2      0.004427209814      0.002892790648      0.003323647791    -0.0004304815541
                   3       0.01230918097       0.00472000512        0.0113673007      -0.00014819767
                   4       0.02249542435      0.005335307802       0.02185347077    -6.650457154e-05
                   5                   0                   0                   0                   0
                   6      0.004427209814      0.002892790648      0.003323647791     0.0004304815541
                   7       0.01230918097       0.00472000512        0.0113673007       0.00014819767
                   8       0.02249542435      0.005335307802       0.02185347077     6.650457154e-05
                   9                   0                   0                   0                   0
                  10      0.004427209814     -0.002892790648      0.003323647791     0.0004304815541
                  11       0.01230918097      -0.00472000512        0.0113673007       0.00014819767
                  12       0.02249542435     -0.005335307802       0.02185347077     6.650457154e-05
                  13                   0                   0                   0                   0
                  14      0.004427209814     -0.002892790648      0.003323647791    -0.0004304815541
                  15       0.01230918097      -0.00472000512        0.0113673007      -0.00014819767
                  16       0.02249542435     -0.005335307802       0.02185347077    -6.650457154e-05

***** Stress Data ******
          Element No         Integral No           Stress XX           Stress YY           Stress ZZ           Stress XY           Stress XZ           Stress YZ               Mises            YieldFlg
                   1                   1         174.2064223        -95.58759803         -78.6188243         169.6970102        -11.58988799         8.484386866         394.3460863               False
                   1                   2         158.7532383         -111.040782        -47.71245632        -100.0970102        -11.58988799         31.66416285         305.2585054               False
                   1                   3        -158.7532383          111.040782         47.71245632        -100.0970102         11.58988799         31.66416285         305.2585054               False
                   1                   4        -174.2064223         95.58759803          78.6188243         169.6970102         11.58988799         8.484386866         394.3460863               False
                   1                   5         174.2064223        -95.58759803         -78.6188243         169.6970102         11.58988799        -8.484386866         394.3460863               False
                   1                   6         158.7532383         -111.040782        -47.71245632        -100.0970102         11.58988799        -31.66416285         305.2585054               False
                   1                   7        -158.7532383          111.040782         47.71245632        -100.0970102        -11.58988799        -31.66416285         305.2585054               False
                   1                   8        -174.2064223         95.58759803          78.6188243         169.6970102        -11.58988799        -8.484386866         394.3460863               False
                   2                   1         90.55255467        -79.86127699        -10.69127768         120.0069158         7.599950725         34.58499965         262.6870041               False
                   2                   2         100.6858223        -69.72800935        -30.95781295        -50.40691583         7.599950725          19.3850982         181.2738805               False
                   2                   3        -100.6858223         69.72800935         30.95781295        -50.40691583        -7.599950725          19.3850982         181.2738805               False
                   2                   4        -90.55255467         79.86127699         10.69127768         120.0069158        -7.599950725         34.58499965         262.6870041               False
                   2                   5         90.55255467        -79.86127699        -10.69127768         120.0069158        -7.599950725        -34.58499965         262.6870041               False
                   2                   6         100.6858223        -69.72800935        -30.95781295        -50.40691583        -7.599950725         -19.3850982         181.2738805               False
                   2                   7        -100.6858223         69.72800935         30.95781295        -50.40691583         7.599950725         -19.3850982         181.2738805               False
                   2                   8        -90.55255467         79.86127699         10.69127768         120.0069158         7.599950725        -34.58499965         262.6870041               False
                   3                   1         30.11620271         -27.2695553        -2.846647416         63.49287901         2.199429574         12.21145394         122.6539234               False
                   3                   2         33.04877548        -24.33698253        -8.711792945         6.107120993         2.199429574         7.812594795         54.31502175               False
                   3                   3        -33.04877548         24.33698253         8.711792945         6.107120993        -2.199429574         7.812594795         54.31502175               False
                   3                   4        -30.11620271          27.2695553         2.846647416         63.49287901        -2.199429574         12.21145394         122.6539234               False
                   3                   5         30.11620271         -27.2695553        -2.846647416         63.49287901        -2.199429574        -12.21145394         122.6539234               False
                   3                   6         33.04877548        -24.33698253        -8.711792945         6.107120993        -2.199429574        -7.812594795         54.31502175               False
                   3                   7        -33.04877548         24.33698253         8.711792945         6.107120993         2.199429574        -7.812594795         54.31502175               False
                   3                   8        -30.11620271          27.2695553         2.846647416         63.49287901         2.199429574        -12.21145394         122.6539234               False

***** Strain Data ******
          Element No         Integral No           Strain XX           Strain YY           Strain ZZ           Strain XY           Strain XZ           Strain YZ
                   1                   1       0.00107842071    -0.0005917327497      -0.00048668796      0.002101010602    -0.0001434938514     0.0001050447898
                   1                   2     0.0009827581421    -0.0006873953173    -0.0002953628248     -0.001239296317    -0.0001434938514     0.0003920324925
                   1                   3    -0.0009827581421     0.0006873953173     0.0002953628248     -0.001239296317     0.0001434938514     0.0003920324925
                   1                   4      -0.00107842071     0.0005917327497       0.00048668796      0.002101010602     0.0001434938514     0.0001050447898
                   1                   5       0.00107842071    -0.0005917327497      -0.00048668796      0.002101010602     0.0001434938514    -0.0001050447898
                   1                   6     0.0009827581421    -0.0006873953173    -0.0002953628248     -0.001239296317     0.0001434938514    -0.0003920324925
                   1                   7    -0.0009827581421     0.0006873953173     0.0002953628248     -0.001239296317    -0.0001434938514    -0.0003920324925
                   1                   8      -0.00107842071     0.0005917327497       0.00048668796      0.002101010602    -0.0001434938514    -0.0001050447898
                   2                   1     0.0005605634337    -0.0004943793337    -6.618409992e-05       0.00148579991     9.409462803e-05     0.0004281952338
                   2                   2     0.0006232931857    -0.0004316495817     -0.000191643604    -0.0006240856245     9.409462803e-05     0.0002400059778
                   2                   3    -0.0006232931857     0.0004316495817      0.000191643604    -0.0006240856245    -9.409462803e-05     0.0002400059778
                   2                   4    -0.0005605634337     0.0004943793337     6.618409992e-05       0.00148579991    -9.409462803e-05     0.0004281952338
                   2                   5     0.0005605634337    -0.0004943793337    -6.618409992e-05       0.00148579991    -9.409462803e-05    -0.0004281952338
                   2                   6     0.0006232931857    -0.0004316495817     -0.000191643604    -0.0006240856245    -9.409462803e-05    -0.0002400059778
                   2                   7    -0.0006232931857     0.0004316495817      0.000191643604    -0.0006240856245     9.409462803e-05    -0.0002400059778
                   2                   8    -0.0005605634337     0.0004943793337     6.618409992e-05       0.00148579991     9.409462803e-05    -0.0004281952338
                   3                   1     0.0001864336359    -0.0001688115328    -1.762210305e-05     0.0007861023115     2.723103281e-05     0.0001511894298
                   3                   2     0.0002045876577    -0.0001506575109     -5.39301468e-05      7.56119742e-05     2.723103281e-05     9.672736412e-05
                   3                   3    -0.0002045876577     0.0001506575109      5.39301468e-05      7.56119742e-05    -2.723103281e-05     9.672736412e-05
                   3                   4    -0.0001864336359     0.0001688115328     1.762210305e-05     0.0007861023115    -2.723103281e-05     0.0001511894298
                   3                   5     0.0001864336359    -0.0001688115328    -1.762210305e-05     0.0007861023115    -2.723103281e-05    -0.0001511894298
                   3                   6     0.0002045876577    -0.0001506575109     -5.39301468e-05      7.56119742e-05    -2.723103281e-05    -9.672736412e-05
                   3                   7    -0.0002045876577     0.0001506575109      5.39301468e-05      7.56119742e-05     2.723103281e-05    -9.672736412e-05
                   3                   8    -0.0001864336359     0.0001688115328     1.762210305e-05     0.0007861023115     2.723103281e-05    -0.0001511894298

***** Plastic Strain Data ******
          Element No         Integral No          PStrain XX          PStrain YY          PStrain ZZ          PStrain XY          PStrain XZ          PStrain YZ
                   1                   1                   0                   0                   0                   0                   0                   0
                   1                   2                   0                   0                   0                   0                   0                   0
                   1                   3                   0                   0                   0                   0                   0                   0
                   1                   4                   0                   0                   0                   0                   0                   0
                   1                   5                   0                   0                   0                   0                   0                   0
                   1                   6                   0                   0                   0                   0                   0                   0
                   1                   7                   0                   0                   0                   0                   0                   0
                   1                   8                   0                   0                   0                   0                   0                   0
                   2                   1                   0                   0                   0                   0                   0                   0
                   2                   2                   0                   0                   0                   0                   0                   0
                   2                   3                   0                   0                   0                   0                   0                   0
                   2                   4                   0                   0                   0                   0                   0                   0
                   2                   5                   0                   0                   0                   0                   0                   0
                   2                   6                   0                   0                   0                   0                   0                   0
                   2                   7                   0                   0                   0                   0                   0                   0
                   2                   8                   0                   0                   0                   0                   0                   0
                   3                   1                   0                   0                   0                   0                   0                   0
                   3                   2                   0                   0                   0                   0                   0                   0
                   3                   3                   0                   0                   0                   0                   0                   0
                   3                   4                   0                   0                   0                   0                   0                   0
                   3                   5                   0                   0                   0                   0                   0                   0
                   3                   6                   0                   0                   0                   0                   0                   0
                   3                   7                   0                   0                   0                   0                   0                   0
                   3                   8                   0                   0                   0                   0                   0                   0

***** Reaction Force Data ******
              NodeNo           Magnitude             X Force             Y Force             Z Force----------------------------------------------------------------------------------------------------
                   1         53.75525011               -52.2                -8.7         9.439116192
                   2     3.078691487e-13    -2.700062396e-13    -1.030286967e-13    -1.061373212e-13
                   3     3.447157212e-13     2.629008122e-13     2.220446049e-13     2.020605905e-14
                   4      3.74131936e-13    -4.674038934e-14     3.161915174e-13     1.944555628e-13
                   5         53.75525011               -52.2                -8.7        -9.439116192
                   6      7.48194774e-14    -7.105427358e-14     1.065814104e-14     2.087219286e-14
                   7     5.478702142e-13     3.517186542e-13      3.53495011e-13    -2.269295862e-13
                   8      3.91745089e-13    -2.315925229e-13     2.344791028e-13    -2.117750419e-13
                   9         53.75525011                52.2                -8.7        -9.439116192
                  10     1.259335525e-13     2.842170943e-14     1.225686219e-13    -5.329070518e-15
                  11     4.569736231e-13     1.456612608e-13     -2.54019028e-13     3.508304758e-13
                  12     6.078358649e-13    -2.552957845e-13    -5.222489108e-13     1.776079284e-13
                  13         53.75525011                52.2                -8.7         9.439116192
                  14     2.544228128e-13     2.344791028e-13     8.704148513e-14    -4.662936703e-14
                  15     4.658866224e-13     4.547473509e-13     9.769962617e-14     2.664535259e-14
                  16     4.394439641e-13    -2.693401058e-13    -3.375077995e-13    -8.158057563e-14

*Increment 88

***** Displacement Data ******
              NodeNo           Magnitude      X Displacement      Y Displacement      Z Displacement
----------------------------------------------------------------------------------------------------
                   1                   0                   0                   0                   0
                   2      0.004478097284      0.002926041115      0.003361850639    -0.0004354296179
                   3       0.01245066581      0.004774258053       0.01149795933    -0.0001499010915
                   4       0.02275399245      0.005396633179       0.02210466009     -6.72689919e-05
                   5                   0                   0                   0                   0
                   6      0.004478097284      0.002926041115      0.003361850639     0.0004354296179
                   7       0.01245066581      0.004774258053       0.01149795933     0.0001499010915
                   8       0.02275399245      0.005396633179       0.02210466009      6.72689919e-05
                   9                   0                   0                   0                   0
                  10      0.004478097284     -0.002926041115      0.003361850639     0.0004354296179
                  11       0.01245066581     -0.004774258053       0.01149795933     0.0001499010915
                  12       0.02275399245     -0.005396633179       0.02210466009      6.72689919e-05
                  13                   0                   0                   0                   0
                  14      0.004478097284     -0.002926041115      0.003361850639    -0.0004354296179
                  15       0.01245066581     -0.004774258053       0.01149795933    -0.0001499010915
                  16       0.02275399245     -0.005396633179       0.02210466009     -6.72689919e-05

***** Stress Data ******
          Element No         Integral No           Stress XX           Stress YY           Stress ZZ           Stress XY           Stress XZ           Stress YZ               Mises            YieldFlg
                   1                   1          176.208795        -96.68630605        -79.52248895         171.6475505         -11.7231051         8.581908554         398.8787999               False
                   1                   2         160.5779882        -112.3171129        -48.26087535        -101.2475505         -11.7231051         32.02811875         308.7672239               False
                   1                   3        -160.5779882         112.3171129         48.26087535        -101.2475505          11.7231051         32.02811875         308.7672239               False
                   1                   4         -176.208795         96.68630605         79.52248895         171.6475505          11.7231051         8.581908554         398.8787999               False
                   1                   5          176.208795        -96.68630605        -79.52248895         171.6475505          11.7231051        -8.581908554         398.8787999               False
                   1                   6         160.5779882        -112.3171129        -48.26087535        -101.2475505          11.7231051        -32.02811875         308.7672239               False
                   1                   7        -160.5779882         112.3171129         48.26087535        -101.2475505         -11.7231051        -32.02811875         308.7672239               False
                   1                   8         -176.208795         96.68630605         79.52248895         171.6475505         -11.7231051        -8.581908554         398.8787999               False
                   2                   1         91.59338863         -80.7792227        -10.81416593         121.3863057         7.687306481         34.98252838         265.7063949               False
                   2                   2         101.8431306        -70.52948072        -31.31364988        -50.98630566         7.687306481         19.60791542         183.3574884               False
                   2                   3        -101.8431306         70.52948072         31.31364988        -50.98630566        -7.687306481         19.60791542         183.3574884               False
                   2                   4        -91.59338863          80.7792227         10.81416593         121.3863057        -7.687306481         34.98252838         265.7063949               False
                   2                   5         91.59338863         -80.7792227        -10.81416593         121.3863057        -7.687306481        -34.98252838         265.7063949               False
                   2                   6         101.8431306        -70.52948072        -31.31364988        -50.98630566        -7.687306481        -19.60791542         183.3574884               False
                   2                   7        -101.8431306         70.52948072         31.31364988        -50.98630566         7.687306481        -19.60791542         183.3574884               False
                   2                   8        -91.59338863          80.7792227         10.81416593         121.3863057         7.687306481        -34.98252838         265.7063949               False
                   3                   1         30.46236596        -27.58299846        -2.879367501         64.22268221         2.224710373         12.35181548         124.0637386               False
                   3                   2         33.42864646        -24.61671797        -8.811928496         6.177317786         2.224710373         7.902394735         54.93933235               False
                   3                   3        -33.42864646         24.61671797         8.811928496         6.177317786        -2.224710373         7.902394735         54.93933235               False
                   3                   4        -30.46236596         27.58299846         2.879367501         64.22268221        -2.224710373         12.35181548         124.0637386               False
                   3                   5         30.46236596        -27.58299846        -2.879367501         64.22268221        -2.224710373        -12.35181548         124.0637386               False
                   3                   6         33.42864646        -24.61671797        -8.811928496         6.177317786        -2.224710373        -7.902394735         54.93933235               False
                   3                   7        -33.42864646         24.61671797         8.811928496         6.177317786         2.224710373        -7.902394735         54.93933235               False
                   3                   8        -30.46236596         27.58299846         2.879367501         64.22268221         2.224710373        -12.35181548         124.0637386               False

***** Strain Data ******
          Element No         Integral No           Strain XX           Strain YY           Strain ZZ           Strain XY           Strain XZ           Strain YZ
                   1                   1       0.00109081635    -0.0005985342756    -0.0004922820744      0.002125160149     -0.000145143206     0.0001062522011
                   1                   2     0.0009940542127    -0.0006952964129    -0.0002987577998     -0.001253541102     -0.000145143206     0.0003965386131
                   1                   3    -0.0009940542127     0.0006952964129     0.0002987577998     -0.001253541102      0.000145143206     0.0003965386131
                   1                   4      -0.00109081635     0.0005985342756     0.0004922820744      0.002125160149      0.000145143206     0.0001062522011
                   1                   5       0.00109081635    -0.0005985342756    -0.0004922820744      0.002125160149      0.000145143206    -0.0001062522011
                   1                   6     0.0009940542127    -0.0006952964129    -0.0002987577998     -0.001253541102      0.000145143206    -0.0003965386131
                   1                   7    -0.0009940542127     0.0006952964129     0.0002987577998     -0.001253541102     -0.000145143206    -0.0003965386131
                   1                   8      -0.00109081635     0.0005985342756     0.0004922820744      0.002125160149     -0.000145143206    -0.0001062522011
                   2                   1     0.0005670066915    -0.0005000618548     -6.69448367e-05       0.00150287807     9.517617547e-05     0.0004331170181
                   2                   2     0.0006304574752    -0.0004366110712     -0.000193846404    -0.0006312590225     9.517617547e-05     0.0002427646672
                   2                   3    -0.0006304574752     0.0004366110712      0.000193846404    -0.0006312590225    -9.517617547e-05     0.0002427646672
                   2                   4    -0.0005670066915     0.0005000618548      6.69448367e-05       0.00150287807    -9.517617547e-05     0.0004331170181
                   2                   5     0.0005670066915    -0.0005000618548     -6.69448367e-05       0.00150287807    -9.517617547e-05    -0.0004331170181
                   2                   6     0.0006304574752    -0.0004366110712     -0.000193846404    -0.0006312590225    -9.517617547e-05    -0.0002427646672
                   2                   7    -0.0006304574752     0.0004366110712      0.000193846404    -0.0006312590225     9.517617547e-05    -0.0002427646672
                   2                   8    -0.0005670066915     0.0005000618548      6.69448367e-05       0.00150287807     9.517617547e-05    -0.0004331170181
                   3                   1     0.0001885765512    -0.0001707518952    -1.782465596e-05     0.0007951379703     2.754403319e-05     0.0001529272393
                   3                   2       0.00020693924    -0.0001523892065    -5.455003355e-05     7.648107736e-05     2.754403319e-05     9.783917291e-05
                   3                   3      -0.00020693924     0.0001523892065     5.455003355e-05     7.648107736e-05    -2.754403319e-05     9.783917291e-05
                   3                   4    -0.0001885765512     0.0001707518952     1.782465596e-05     0.0007951379703    -2.754403319e-05     0.0001529272393
                   3                   5     0.0001885765512    -0.0001707518952    -1.782465596e-05     0.0007951379703    -2.754403319e-05    -0.0001529272393
                   3                   6       0.00020693924    -0.0001523892065    -5.455003355e-05     7.648107736e-05    -2.754403319e-05    -9.783917291e-05
                   3                   7      -0.00020693924     0.0001523892065     5.455003355e-05     7.648107736e-05     2.754403319e-05    -9.783917291e-05
                   3                   8    -0.0001885765512     0.0001707518952     1.782465596e-05     0.0007951379703     2.754403319e-05    -0.0001529272393

***** Plastic Strain Data ******
          Element No         Integral No          PStrain XX          PStrain YY          PStrain ZZ          PStrain XY          PStrain XZ          PStrain YZ
                   1                   1                   0                   0                   0                   0                   0                   0
                   1                   2                   0                   0                   0                   0                   0                   0
                   1                   3                   0                   0                   0                   0                   0                   0
                   1                   4                   0                   0                   0                   0                   0                   0
                   1                   5                   0                   0                   0                   0                   0                   0
                   1                   6                   0                   0                   0                   0                   0                   0
                   1                   7                   0                   0                   0                   0                   0                   0
                   1                   8                   0                   0                   0                   0                   0                   0
                   2                   1                   0                   0                   0                   0                   0                   0
                   2                   2                   0                   0                   0                   0                   0                   0
                   2                   3                   0                   0                   0                   0                   0                   0
                   2                   4                   0                   0                   0                   0                   0                   0
                   2                   5                   0                   0                   0                   0                   0                   0
                   2                   6                   0                   0                   0                   0                   0                   0
                   2                   7                   0                   0                   0                   0                   0                   0
                   2                   8                   0                   0                   0                   0                   0                   0
                   3                   1                   0                   0                   0                   0                   0                   0
                   3                   2                   0                   0                   0                   0                   0                   0
                   3                   3                   0                   0                   0                   0                   0                   0
                   3                   4                   0                   0                   0                   0                   0                   0
                   3                   5                   0                   0                   0                   0                   0                   0
                   3                   6                   0                   0                   0                   0                   0                   0
                   3                   7                   0                   0                   0                   0                   0                   0
                   3                   8                   0                   0                   0                   0                   0                   0

***** Reaction Force Data ******
              NodeNo           Magnitude             X Force             Y Force             Z Force----------------------------------------------------------------------------------------------------
                   1         54.37312655               -52.8                -8.8          9.54761178
                   2     3.225252728e-13    -2.913225217e-13    -8.881784197e-14    -1.061373212e-13
                   3     2.633864613e-13     2.309263891e-13     1.225686219e-13    -3.197442311e-14
                   4     2.899545904e-13    -3.219646771e-15      2.54019028e-13     1.397770788e-13
                   5         54.37312655               -52.8                -8.8         -9.54761178
                   6     9.693054522e-14    -8.526512829e-14    -1.065814104e-14     4.485301019e-14
                   7     4.311756911e-13     3.197442311e-13     2.593480986e-13     -1.28119737e-13
                   8     2.262365396e-13    -1.516564652e-13     7.105427358e-14    -1.521005544e-13
                   9         54.37312655                52.8                -8.8         -9.54761178
                  10     1.615239819e-13    -2.131628207e-14     1.563194019e-13    -3.463895837e-14
                  11     3.564385156e-13     1.563194019e-13    -1.652011861e-13     2.744471317e-13
                  12     4.891699373e-13    -2.026712131e-13    -4.174438573e-13     1.547650896e-13
                  13         54.37312655                52.8                -8.8          9.54761178
                  14     2.108783226e-13     1.847411113e-13     9.592326933e-14    -3.375077995e-14
                  15     4.701200299e-13     4.405364962e-13      1.54543045e-13     5.528910663e-14
                  16     3.432837532e-13    -2.569056079e-13    -2.167155344e-13    -6.983996714e-14

*Increment 89

***** Displacement Data ******
              NodeNo           Magnitude      X Displacement      Y Displacement      Z Displacement
----------------------------------------------------------------------------------------------------
                   1                   0                   0                   0                   0
                   2      0.004589476523      0.002991110165      0.003452594187    -0.0004428861233
                   3        0.0127124238      0.004860926628       0.01174539288    -0.0001511857847
                   4       0.02319657693      0.005490292496       0.02253737391    -6.816617976e-05
                   5                   0                   0                   0                   0
                   6      0.004589476523      0.002991110165      0.003452594187     0.0004428861233
                   7        0.0127124238      0.004860926628       0.01174539288     0.0001511857847
                   8       0.02319657693      0.005490292496       0.02253737391     6.816617976e-05
                   9                   0                   0                   0                   0
                  10      0.004589476523     -0.002991110165      0.003452594187     0.0004428861233
                  11        0.0127124238     -0.004860926628       0.01174539288     0.0001511857847
                  12       0.02319657693     -0.005490292496       0.02253737391     6.816617976e-05
                  13                   0                   0                   0                   0
                  14      0.004589476523     -0.002991110165      0.003452594187    -0.0004428861233
                  15        0.0127124238     -0.004860926628       0.01174539288    -0.0001511857847
                  16       0.02319657693     -0.005490292496       0.02253737391    -6.816617976e-05

***** Stress Data ******
          Element No         Integral No           Stress XX           Stress YY           Stress ZZ           Stress XY           Stress XZ           Stress YZ               Mises            YieldFlg
                   1                   1         176.6952977        -96.90849814        -79.78679954         173.3684675        -11.69433762         8.560849299         401.5814258               False
                   1                   2         164.2580901        -114.7056286        -49.55246145        -102.2081499        -11.92385717          32.5765836         314.3884157               False
                   1                   3        -164.2580901         114.7056286         49.55246145        -102.2081499         11.92385717          32.5765836         314.3884157               False
                   1                   4        -176.6952977         96.90849814         79.78679954         173.3684675         11.69433762         8.560849299         401.5814258               False
                   1                   5         176.6952977        -96.90849814        -79.78679954         173.3684675         11.69433762        -8.560849299         401.5814258               False
                   1                   6         164.2580901        -114.7056286        -49.55246145        -102.2081499         11.92385717         -32.5765836         314.3884157               False
                   1                   7        -164.2580901         114.7056286         49.55246145        -102.2081499        -11.92385717         -32.5765836         314.3884157               False
                   1                   8        -176.6952977         96.90849814         79.78679954         173.3684675        -11.69433762        -8.560849299         401.5814258               False
                   2                   1         92.55384142        -81.83323404        -10.72060738         122.7935377         7.853470654         35.55631333         268.8480588               False
                   2                   2         103.0251356        -71.36193983        -31.66319579        -51.59353773         7.853470654         19.84937202         185.5171087               False
                   2                   3        -103.0251356         71.36193983         31.66319579        -51.59353773        -7.853470654         19.84937202         185.5171087               False
                   2                   4        -92.55384142         81.83323404         10.72060738         122.7935377        -7.853470654         35.55631333         268.8480588               False
                   2                   5         92.55384142        -81.83323404        -10.72060738         122.7935377        -7.853470654        -35.55631333         268.8480588               False
                   2                   6         103.0251356        -71.36193983        -31.66319579        -51.59353773        -7.853470654        -19.84937202         185.5171087               False
                   2                   7        -103.0251356         71.36193983         31.66319579        -51.59353773         7.853470654        -19.84937202         185.5171087               False
                   2                   8        -92.55384142         81.83323404         10.72060738         122.7935377         7.853470654        -35.55631333         268.8480588               False
                   3                   1         30.82223784        -27.87511302        -2.947124826         64.94867543          2.23514321          12.4639941         125.4575988               False
                   3                   2         33.80242879        -24.89492207         -8.90750672         6.251324568          2.23514321         7.993707676         55.55610119               False
                   3                   3        -33.80242879         24.89492207          8.90750672         6.251324568         -2.23514321         7.993707676         55.55610119               False
                   3                   4        -30.82223784         27.87511302         2.947124826         64.94867543         -2.23514321          12.4639941         125.4575988               False
                   3                   5         30.82223784        -27.87511302        -2.947124826         64.94867543         -2.23514321         -12.4639941         125.4575988               False
                   3                   6         33.80242879        -24.89492207         -8.90750672         6.251324568         -2.23514321        -7.993707676         55.55610119               False
                   3                   7        -33.80242879         24.89492207          8.90750672         6.251324568          2.23514321        -7.993707676         55.55610119               False
                   3                   8        -30.82223784         27.87511302         2.947124826         64.94867543          2.23514321         -12.4639941         125.4575988               False

***** Strain Data ******
          Element No         Integral No           Strain XX           Strain YY           Strain ZZ           Strain XY           Strain XZ           Strain YZ
                   1                   1      0.001115254934    -0.0006116633245    -0.0005035916098      0.002188402281    -0.0001476287078     0.0001080717147
                   1                   2      0.001016835796     -0.000710082463    -0.0003067533328     -0.001265434236    -0.0001476287078     0.0004033291303
                   1                   3     -0.001016835796      0.000710082463     0.0003067533328     -0.001265434236     0.0001476287078     0.0004033291303
                   1                   4     -0.001115254934     0.0006116633245     0.0005035916098      0.002188402281     0.0001476287078     0.0001080717147
                   1                   5      0.001115254934    -0.0006116633245    -0.0005035916098      0.002188402281     0.0001476287078    -0.0001080717147
                   1                   6      0.001016835796     -0.000710082463    -0.0003067533328     -0.001265434236     0.0001476287078    -0.0004033291303
                   1                   7     -0.001016835796      0.000710082463     0.0003067533328     -0.001265434236    -0.0001476287078    -0.0004033291303
                   1                   8     -0.001115254934     0.0006116633245     0.0005035916098      0.002188402281    -0.0001476287078    -0.0001080717147
                   2                   1     0.0005729523516    -0.0005065866869    -6.636566472e-05      0.001520300943     9.723344619e-05     0.0004402210222
                   2                   2     0.0006377746491    -0.0004417643894    -0.0001960102596    -0.0006387771338     9.723344619e-05     0.0002457541298
                   2                   3    -0.0006377746491     0.0004417643894     0.0001960102596    -0.0006387771338    -9.723344619e-05     0.0002457541298
                   2                   4    -0.0005729523516     0.0005065866869     6.636566472e-05      0.001520300943    -9.723344619e-05     0.0004402210222
                   2                   5     0.0005729523516    -0.0005065866869    -6.636566472e-05      0.001520300943    -9.723344619e-05    -0.0004402210222
                   2                   6     0.0006377746491    -0.0004417643894    -0.0001960102596    -0.0006387771338    -9.723344619e-05    -0.0002457541298
                   2                   7    -0.0006377746491     0.0004417643894     0.0001960102596    -0.0006387771338     9.723344619e-05    -0.0002457541298
                   2                   8    -0.0005729523516     0.0005065866869     6.636566472e-05      0.001520300943     9.723344619e-05    -0.0004402210222
                   3                   1     0.0001908043295    -0.0001725602234    -1.824410606e-05     0.0008041264577     2.767320165e-05     0.0001543161174
                   3                   2     0.0002092531306    -0.0001541114223    -5.514170826e-05      7.73973518e-05     2.767320165e-05     9.896971408e-05
                   3                   3    -0.0002092531306     0.0001541114223     5.514170826e-05      7.73973518e-05    -2.767320165e-05     9.896971408e-05
                   3                   4    -0.0001908043295     0.0001725602234     1.824410606e-05     0.0008041264577    -2.767320165e-05     0.0001543161174
                   3                   5     0.0001908043295    -0.0001725602234    -1.824410606e-05     0.0008041264577    -2.767320165e-05    -0.0001543161174
                   3                   6     0.0002092531306    -0.0001541114223    -5.514170826e-05      7.73973518e-05    -2.767320165e-05    -9.896971408e-05
                   3                   7    -0.0002092531306     0.0001541114223     5.514170826e-05      7.73973518e-05     2.767320165e-05    -9.896971408e-05
                   3                   8    -0.0001908043295     0.0001725602234     1.824410606e-05     0.0008041264577     2.767320165e-05    -0.0001543161174

***** Plastic Strain Data ******
          Element No         Integral No          PStrain XX          PStrain YY          PStrain ZZ          PStrain XY          PStrain XZ          PStrain YZ
                   1                   1     2.142690098e-05     -1.17535741e-05    -9.673326875e-06     4.193554039e-05    -2.841670561e-06     2.080247229e-06
                   1                   2                   0                   0                   0                   0                   0                   0
                   1                   3                   0                   0                   0                   0                   0                   0
                   1                   4    -2.142690098e-05      1.17535741e-05     9.673326875e-06     4.193554039e-05     2.841670561e-06     2.080247229e-06
                   1                   5     2.142690098e-05     -1.17535741e-05    -9.673326875e-06     4.193554039e-05     2.841670561e-06    -2.080247229e-06
                   1                   6                   0                   0                   0                   0                   0                   0
                   1                   7                   0                   0                   0                   0                   0                   0
                   1                   8    -2.142690098e-05      1.17535741e-05     9.673326875e-06     4.193554039e-05    -2.841670561e-06    -2.080247229e-06
                   2                   1                   0                   0                   0                   0                   0                   0
                   2                   2                   0                   0                   0                   0                   0                   0
                   2                   3                   0                   0                   0                   0                   0                   0
                   2                   4                   0                   0                   0                   0                   0                   0
                   2                   5                   0                   0                   0                   0                   0                   0
                   2                   6                   0                   0                   0                   0                   0                   0
                   2                   7                   0                   0                   0                   0                   0                   0
                   2                   8                   0                   0                   0                   0                   0                   0
                   3                   1                   0                   0                   0                   0                   0                   0
                   3                   2                   0                   0                   0                   0                   0                   0
                   3                   3                   0                   0                   0                   0                   0                   0
                   3                   4                   0                   0                   0                   0                   0                   0
                   3                   5                   0                   0                   0                   0                   0                   0
                   3                   6                   0                   0                   0                   0                   0                   0
                   3                   7                   0                   0                   0                   0                   0                   0
                   3                   8                   0                   0                   0                   0                   0                   0

***** Reaction Force Data ******
              NodeNo           Magnitude             X Force             Y Force             Z Force----------------------------------------------------------------------------------------------------
                   1         54.97167992        -53.38926026        -8.895039708         9.609929782
                   2       0.00504223438    -0.0008191520623     -0.004960292453    -0.0003855077453
                   3     2.174441447e-13     -6.75015599e-14    -1.776356839e-13    -1.056932319e-13
                   4     1.865563885e-13     2.942091015e-14    -1.616484724e-13    -8.835987497e-14
                   5         54.97167992        -53.38926026        -8.895039708        -9.609929782
                   6       0.00504223438    -0.0008191520622     -0.004960292453     0.0003855077453
                   7     1.872819553e-13    -8.526512829e-14     -1.54543045e-13     6.261657859e-14
                   8     7.973165804e-14     3.530509218e-14    -4.618527782e-14     5.456746166e-14
                   9         54.97167992         53.38926026        -8.895039708        -9.609929782
                  10       0.00504223438     0.0008191520622     -0.004960292453     0.0003855077452
                  11     1.090654982e-13    -3.552713679e-14     8.704148513e-14    -5.528910663e-14
                  12     2.097288358e-13      1.03139719e-13     1.776356839e-13    -4.235500839e-14
                  13         54.97167992         53.38926026        -8.895039708         9.609929782
                  14       0.00504223438     0.0008191520623     -0.004960292453    -0.0003855077452
                  15     2.404759473e-13    -5.684341886e-14     2.025046797e-13     1.165734176e-13
                  16     1.199474407e-13     6.439293543e-14     8.526512829e-14     5.450501162e-14

*Increment 90

***** Displacement Data ******
              NodeNo           Magnitude      X Displacement      Y Displacement      Z Displacement
----------------------------------------------------------------------------------------------------
                   1                   0                   0                   0                   0
                   2      0.004722373344      0.003067427666      0.003562034398    -0.0004512299463
                   3       0.01301684093      0.004959054855        0.0120342312    -0.0001523223601
                   4       0.02370434302      0.005595382563       0.02303438291    -6.911033182e-05
                   5                   0                   0                   0                   0
                   6      0.004722373344      0.003067427666      0.003562034398     0.0004512299463
                   7       0.01301684093      0.004959054855        0.0120342312     0.0001523223601
                   8       0.02370434302      0.005595382563       0.02303438291     6.911033182e-05
                   9                   0                   0                   0                   0
                  10      0.004722373344     -0.003067427666      0.003562034398     0.0004512299463
                  11       0.01301684093     -0.004959054855        0.0120342312     0.0001523223601
                  12       0.02370434302     -0.005595382563       0.02303438291     6.911033182e-05
                  13                   0                   0                   0                   0
                  14      0.004722373344     -0.003067427666      0.003562034398    -0.0004512299463
                  15       0.01301684093     -0.004959054855        0.0120342312    -0.0001523223601
                  16       0.02370434302     -0.005595382563       0.02303438291    -6.911033182e-05

***** Stress Data ******
          Element No         Integral No           Stress XX           Stress YY           Stress ZZ           Stress XY           Stress XZ           Stress YZ               Mises            YieldFlg
                   1                   1         176.7043681        -96.85431862         -79.8500495         175.0357023         -11.6141318         8.502134561         403.7398284               False
                   1                   2         168.5940665        -117.4873485        -51.10671797        -103.0917022        -12.14849856         33.19031529         320.7646268               False
                   1                   3        -168.5940665         117.4873485         51.10671797        -103.0917022         12.14849856         33.19031529         320.7646268               False
                   1                   4        -176.7043681         96.85431862          79.8500495         175.0357023          11.6141318         8.502134561         403.7398284               False
                   1                   5         176.7043681        -96.85431862         -79.8500495         175.0357023          11.6141318        -8.502134561         403.7398284               False
                   1                   6         168.5940665        -117.4873485        -51.10671797        -103.0917022         12.14849856        -33.19031529         320.7646268               False
                   1                   7        -168.5940665         117.4873485         51.10671797        -103.0917022        -12.14849856        -33.19031529         320.7646268               False
                   1                   8        -176.7043681         96.85431862          79.8500495         175.0357023         -11.6141318        -8.502134561         403.7398284               False
                   2                   1         93.48586076        -82.93537623        -10.55048453         124.2106185         8.047511937         36.19244585         272.0341767               False
                   2                   2         104.2158767        -72.20536032        -32.01051636         -52.2106185         8.047511937         20.09742198          187.703774               False
                   2                   3        -104.2158767         72.20536032         32.01051636         -52.2106185        -8.047511937         20.09742198          187.703774               False
                   2                   4        -93.48586076         82.93537623         10.55048453         124.2106185        -8.047511937         36.19244585         272.0341767               False
                   2                   5         93.48586076        -82.93537623        -10.55048453         124.2106185        -8.047511937        -36.19244585         272.0341767               False
                   2                   6         104.2158767        -72.20536032        -32.01051636         -52.2106185        -8.047511937        -20.09742198          187.703774               False
                   2                   7        -104.2158767         72.20536032         32.01051636         -52.2106185         8.047511937        -20.09742198          187.703774               False
                   2                   8        -93.48586076         82.93537623         10.55048453         124.2106185         8.047511937        -36.19244585         272.0341767               False
                   3                   1         31.18695892        -28.15968295        -3.027275967         65.67332093         2.240323838         12.56620349         126.8458854               False
                   3                   2         34.17405737         -25.1725845        -9.001472868         6.326679068         2.240323838         8.085555815         56.17022322               False
                   3                   3        -34.17405737          25.1725845         9.001472868         6.326679068        -2.240323838         8.085555815         56.17022322               False
                   3                   4        -31.18695892         28.15968295         3.027275967         65.67332093        -2.240323838         12.56620349         126.8458854               False
                   3                   5         31.18695892        -28.15968295        -3.027275967         65.67332093        -2.240323838        -12.56620349         126.8458854               False
                   3                   6         34.17405737         -25.1725845        -9.001472868         6.326679068        -2.240323838        -8.085555815         56.17022322               False
                   3                   7        -34.17405737          25.1725845         9.001472868         6.326679068         2.240323838        -8.085555815         56.17022322               False
                   3                   8        -31.18695892         28.15968295         3.027275967         65.67332093         2.240323838        -12.56620349         126.8458854               False

***** Strain Data ******
          Element No         Integral No           Strain XX           Strain YY           Strain ZZ           Strain XY           Strain XZ           Strain YZ
                   1                   1      0.001143950876    -0.0006270293125    -0.0005169215636      0.002265586921    -0.0001504099821     0.0001101077489
                   1                   2      0.001043677555    -0.0007273026339    -0.0003163749208     -0.001276373456    -0.0001504099821     0.0004109277131
                   1                   3     -0.001043677555     0.0007273026339     0.0003163749208     -0.001276373456     0.0001504099821     0.0004109277131
                   1                   4     -0.001143950876     0.0006270293125     0.0005169215636      0.002265586921     0.0001504099821     0.0001101077489
                   1                   5      0.001143950876    -0.0006270293125    -0.0005169215636      0.002265586921     0.0001504099821    -0.0001101077489
                   1                   6      0.001043677555    -0.0007273026339    -0.0003163749208     -0.001276373456     0.0001504099821    -0.0004109277131
                   1                   7     -0.001043677555     0.0007273026339     0.0003163749208     -0.001276373456    -0.0001504099821    -0.0004109277131
                   1                   8     -0.001143950876     0.0006270293125     0.0005169215636      0.002265586921    -0.0001504099821    -0.0001101077489
                   2                   1     0.0005787219952    -0.0005134094719    -6.531252326e-05      0.001537845753     9.963586208e-05     0.0004480969487
                   2                   2     0.0006451459032    -0.0004469855639    -0.0001981603394    -0.0006464171814     9.963586208e-05     0.0002488252245
                   2                   3    -0.0006451459032     0.0004469855639     0.0001981603394    -0.0006464171814    -9.963586208e-05     0.0002488252245
                   2                   4    -0.0005787219952     0.0005134094719     6.531252326e-05      0.001537845753    -9.963586208e-05     0.0004480969487
                   2                   5     0.0005787219952    -0.0005134094719    -6.531252326e-05      0.001537845753    -9.963586208e-05    -0.0004480969487
                   2                   6     0.0006451459032    -0.0004469855639    -0.0001981603394    -0.0006464171814    -9.963586208e-05    -0.0002488252245
                   2                   7    -0.0006451459032     0.0004469855639     0.0001981603394    -0.0006464171814     9.963586208e-05    -0.0002488252245
                   2                   8    -0.0005787219952     0.0005134094719     6.531252326e-05      0.001537845753     9.963586208e-05    -0.0004480969487
                   3                   1     0.0001930621266    -0.0001743218468    -1.874027979e-05     0.0008130982592     2.773734275e-05      0.000155581567
                   3                   2     0.0002115536885     -0.000155830285    -5.572340347e-05     7.833031227e-05     2.773734275e-05     0.0001001068815
                   3                   3    -0.0002115536885      0.000155830285     5.572340347e-05     7.833031227e-05    -2.773734275e-05     0.0001001068815
                   3                   4    -0.0001930621266     0.0001743218468     1.874027979e-05     0.0008130982592    -2.773734275e-05      0.000155581567
                   3                   5     0.0001930621266    -0.0001743218468    -1.874027979e-05     0.0008130982592    -2.773734275e-05     -0.000155581567
                   3                   6     0.0002115536885     -0.000155830285    -5.572340347e-05     7.833031227e-05    -2.773734275e-05    -0.0001001068815
                   3                   7    -0.0002115536885      0.000155830285     5.572340347e-05     7.833031227e-05     2.773734275e-05    -0.0001001068815
                   3                   8    -0.0001930621266     0.0001743218468     1.874027979e-05     0.0008130982592     2.773734275e-05     -0.000155581567

***** Plastic Strain Data ******
          Element No         Integral No          PStrain XX          PStrain YY          PStrain ZZ          PStrain XY          PStrain XZ          PStrain YZ
                   1                   1     5.006669239e-05    -2.745495906e-05    -2.261173332e-05     9.847822565e-05    -6.615969397e-06      4.84322574e-06
                   1                   2                   0                   0                   0                   0                   0                   0
                   1                   3                   0                   0                   0                   0                   0                   0
                   1                   4    -5.006669239e-05     2.745495906e-05     2.261173332e-05     9.847822565e-05     6.615969397e-06      4.84322574e-06
                   1                   5     5.006669239e-05    -2.745495906e-05    -2.261173332e-05     9.847822565e-05     6.615969397e-06     -4.84322574e-06
                   1                   6                   0                   0                   0                   0                   0                   0
                   1                   7                   0                   0                   0                   0                   0                   0
                   1                   8    -5.006669239e-05     2.745495906e-05     2.261173332e-05     9.847822565e-05    -6.615969397e-06     -4.84322574e-06
                   2                   1                   0                   0                   0                   0                   0                   0
                   2                   2                   0                   0                   0                   0                   0                   0
                   2                   3                   0                   0                   0                   0                   0                   0
                   2                   4                   0                   0                   0                   0                   0                   0
                   2                   5                   0                   0                   0                   0                   0                   0
                   2                   6                   0                   0                   0                   0                   0                   0
                   2                   7                   0                   0                   0                   0                   0                   0
                   2                   8                   0                   0                   0                   0                   0                   0
                   3                   1                   0                   0                   0                   0                   0                   0
                   3                   2                   0                   0                   0                   0                   0                   0
                   3                   3                   0                   0                   0                   0                   0                   0
                   3                   4                   0                   0                   0                   0                   0                   0
                   3                   5                   0                   0                   0                   0                   0                   0
                   3                   6                   0                   0                   0                   0                   0                   0
                   3                   7                   0                   0                   0                   0                   0                   0
                   3                   8                   0                   0                   0                   0                   0                   0

***** Reaction Force Data ******
              NodeNo           Magnitude             X Force             Y Force             Z Force----------------------------------------------------------------------------------------------------
                   1         55.57453383        -53.98488451        -8.993000005         9.658519835
                   2      0.007108933712     -0.001115496344     -0.006999995178    -0.0005409934767
                   3     3.278413962e-13     1.492139745e-13     2.664535259e-13     1.192379528e-13
                   4     2.415035458e-13    -1.502131752e-13     1.119104809e-13     1.524336213e-13
                   5         55.57453383        -53.98488451        -8.993000005        -9.658519835
                   6      0.007108933712     -0.001115496344     -0.006999995178     0.0005409934767
                   7     3.224674835e-13     1.669775429e-13     2.380318165e-13    -1.394440119e-13
                   8     2.769427913e-13    -1.700861674e-13     1.687538997e-13    -1.388889004e-13
                   9         55.57453383         53.98488451        -8.993000005        -9.658519835
                  10      0.007108933713      0.001115496344     -0.006999995178     0.0005409934767
                  11     3.365024267e-13     1.207922651e-13    -2.895461648e-13     1.216804435e-13
                  12     2.290201505e-13    -1.628697177e-13    -1.296740493e-13     9.543754675e-14
                  13         55.57453383         53.98488451        -8.993000005         9.658519835
                  14      0.007108933713      0.001115496344     -0.006999995178    -0.0005409934767
                  15     3.250485027e-13     7.105427358e-14    -2.913225217e-13    -1.254552018e-13
                  16     2.076120313e-13     -1.09023901e-13     -1.54543045e-13    -8.563288967e-14

*Increment 91

***** Displacement Data ******
              NodeNo           Magnitude      X Displacement      Y Displacement      Z Displacement
----------------------------------------------------------------------------------------------------
                   1                   0                   0                   0                   0
                   2      0.004857195542      0.003144678527      0.003673155213    -0.0004596479912
                   3       0.01332494596      0.005058134109       0.01232663451    -0.0001534465458
                   4       0.02421765322      0.005701421239       0.02353685653    -7.005841231e-05
                   5                   0                   0                   0                   0
                   6      0.004857195542      0.003144678527      0.003673155213     0.0004596479912
                   7       0.01332494596      0.005058134109       0.01232663451     0.0001534465458
                   8       0.02421765322      0.005701421239       0.02353685653     7.005841231e-05
                   9                   0                   0                   0                   0
                  10      0.004857195542     -0.003144678527      0.003673155213     0.0004596479912
                  11       0.01332494596     -0.005058134109       0.01232663451     0.0001534465458
                  12       0.02421765322     -0.005701421239       0.02353685653     7.005841231e-05
                  13                   0                   0                   0                   0
                  14      0.004857195542     -0.003144678527      0.003673155213    -0.0004596479912
                  15       0.01332494596     -0.005058134109       0.01232663451    -0.0001534465458
                  16       0.02421765322     -0.005701421239       0.02353685653    -7.005841231e-05

***** Stress Data ******
          Element No         Integral No           Stress XX           Stress YY           Stress ZZ           Stress XY           Stress XZ           Stress YZ               Mises            YieldFlg
                   1                   1         176.7511919        -96.82108718        -79.93010469         176.7444091        -11.53675559         8.445491248         405.9990396                True
                   1                   2         172.9844361        -120.3017244        -52.68271167        -103.9584248        -12.37513823         33.80950638         327.2126599               False
                   1                   3        -172.9844361         120.3017244         52.68271167        -103.9584248         12.37513823         33.80950638         327.2126599               False
                   1                   4        -176.7511919         96.82108718         79.93010469         176.7444091         11.53675559         8.445491248         405.9990396                True
                   1                   5         176.7511919        -96.82108718        -79.93010469         176.7444091         11.53675559        -8.445491248         405.9990396                True
                   1                   6         172.9844361        -120.3017244        -52.68271167        -103.9584248         12.37513823        -33.80950638         327.2126599               False
                   1                   7        -172.9844361         120.3017244         52.68271167        -103.9584248        -12.37513823        -33.80950638         327.2126599               False
                   1                   8        -176.7511919         96.82108718         79.93010469         176.7444091        -11.53675559        -8.445491248         405.9990396                True
                   2                   1         94.41550172        -84.04154445        -10.37395727         125.6285231          8.24388507         36.83379359         275.2253225               False
                   2                   2         105.4073485        -73.04969769        -32.35765079        -52.82852309          8.24388507         20.34602345         189.8928724               False
                   2                   3        -105.4073485         73.04969769         32.35765079        -52.82852309         -8.24388507         20.34602345         189.8928724               False
                   2                   4        -94.41550172         84.04154445         10.37395727         125.6285231         -8.24388507         36.83379359         275.2253225               False
                   2                   5         94.41550172        -84.04154445        -10.37395727         125.6285231         -8.24388507        -36.83379359         275.2253225               False
                   2                   6         105.4073485        -73.04969769        -32.35765079        -52.82852309         -8.24388507        -20.34602345         189.8928724               False
                   2                   7        -105.4073485         73.04969769         32.35765079        -52.82852309          8.24388507        -20.34602345         189.8928724               False
                   2                   8        -94.41550172         84.04154445         10.37395727         125.6285231          8.24388507        -36.83379359         275.2253225               False
                   3                   1         31.55208561        -28.44362179        -3.108463818          66.3978537         2.245065132         12.66757899         128.2337825               False
                   3                   2         34.54550578        -25.45020161        -9.095304169         6.402146301         2.245065132         8.177448723         56.78414675               False
                   3                   3        -34.54550578         25.45020161         9.095304169         6.402146301        -2.245065132         8.177448723         56.78414675               False
                   3                   4        -31.55208561         28.44362179         3.108463818          66.3978537        -2.245065132         12.66757899         128.2337825               False
                   3                   5         31.55208561        -28.44362179        -3.108463818          66.3978537        -2.245065132        -12.66757899         128.2337825               False
                   3                   6         34.54550578        -25.45020161        -9.095304169         6.402146301        -2.245065132        -8.177448723         56.78414675               False
                   3                   7        -34.54550578         25.45020161         9.095304169         6.402146301         2.245065132        -8.177448723         56.78414675               False
                   3                   8        -31.55208561         28.44362179         3.108463818          66.3978537         2.245065132        -12.66757899         128.2337825               False

***** Strain Data ******
          Element No         Integral No           Strain XX           Strain YY           Strain ZZ           Strain XY           Strain XZ           Strain YZ
                   1                   1      0.001173000031    -0.0006425809627    -0.0005304190683       0.00234405768    -0.0001532159971     0.0001121618944
                   1                   2      0.001070856033    -0.0007447249608    -0.0003261310722     -0.001287104308    -0.0001532159971     0.0004185938885
                   1                   3     -0.001070856033     0.0007447249608     0.0003261310722     -0.001287104308     0.0001532159971     0.0004185938885
                   1                   4     -0.001173000031     0.0006425809627     0.0005304190683       0.00234405768     0.0001532159971     0.0001121618944
                   1                   5      0.001173000031    -0.0006425809627    -0.0005304190683       0.00234405768     0.0001532159971    -0.0001121618944
                   1                   6      0.001070856033    -0.0007447249608    -0.0003261310722     -0.001287104308     0.0001532159971    -0.0004185938885
                   1                   7     -0.001070856033     0.0007447249608     0.0003261310722     -0.001287104308    -0.0001532159971    -0.0004185938885
                   1                   8     -0.001173000031     0.0006425809627     0.0005304190683       0.00234405768    -0.0001532159971    -0.0001121618944
                   2                   1     0.0005844769154    -0.0005202571799    -6.421973547e-05      0.001555400762     0.0001020671485     0.0004560374445
                   2                   2     0.0006525216811    -0.0004522124143    -0.0002003092668    -0.0006540674287     0.0001020671485     0.0002519031475
                   2                   3    -0.0006525216811     0.0004522124143     0.0002003092668    -0.0006540674287    -0.0001020671485     0.0002519031475
                   2                   4    -0.0005844769154     0.0005202571799     6.421973547e-05      0.001555400762    -0.0001020671485     0.0004560374445
                   2                   5     0.0005844769154    -0.0005202571799    -6.421973547e-05      0.001555400762    -0.0001020671485    -0.0004560374445
                   2                   6     0.0006525216811    -0.0004522124143    -0.0002003092668    -0.0006540674287    -0.0001020671485    -0.0002519031475
                   2                   7    -0.0006525216811     0.0004522124143     0.0002003092668    -0.0006540674287     0.0001020671485    -0.0002519031475
                   2                   8    -0.0005844769154     0.0005202571799     6.421973547e-05      0.001555400762     0.0001020671485    -0.0004560374445
                   3                   1     0.0001953224347    -0.0001760795635    -1.924287125e-05     0.0008220686648     2.779604449e-05     0.0001568366922
                   3                   2      0.000213853131    -0.0001575488671    -5.630426391e-05     7.926466848e-05     2.779604449e-05     0.0001012446032
                   3                   3     -0.000213853131     0.0001575488671     5.630426391e-05     7.926466848e-05    -2.779604449e-05     0.0001012446032
                   3                   4    -0.0001953224347     0.0001760795635     1.924287125e-05     0.0008220686648    -2.779604449e-05     0.0001568366922
                   3                   5     0.0001953224347    -0.0001760795635    -1.924287125e-05     0.0008220686648    -2.779604449e-05    -0.0001568366922
                   3                   6      0.000213853131    -0.0001575488671    -5.630426391e-05     7.926466848e-05    -2.779604449e-05    -0.0001012446032
                   3                   7     -0.000213853131     0.0001575488671     5.630426391e-05     7.926466848e-05     2.779604449e-05    -0.0001012446032
                   3                   8    -0.0001953224347     0.0001760795635     1.924287125e-05     0.0008220686648     2.779604449e-05    -0.0001568366922

***** Plastic Strain Data ******
          Element No         Integral No          PStrain XX          PStrain YY          PStrain ZZ          PStrain XY          PStrain XZ          PStrain YZ
                   1                   1     7.882598617e-05    -4.321232779e-05    -3.561365838e-05     0.0001557935677    -1.037997545e-05     7.598669414e-06
                   1                   2                   0                   0                   0                   0                   0                   0
                   1                   3                   0                   0                   0                   0                   0                   0
                   1                   4    -7.882598617e-05     4.321232779e-05     3.561365838e-05     0.0001557935677     1.037997545e-05     7.598669414e-06
                   1                   5     7.882598617e-05    -4.321232779e-05    -3.561365838e-05     0.0001557935677     1.037997545e-05    -7.598669414e-06
                   1                   6                   0                   0                   0                   0                   0                   0
                   1                   7                   0                   0                   0                   0                   0                   0
                   1                   8    -7.882598617e-05     4.321232779e-05     3.561365838e-05     0.0001557935677    -1.037997545e-05    -7.598669414e-06
                   2                   1                   0                   0                   0                   0                   0                   0
                   2                   2                   0                   0                   0                   0                   0                   0
                   2                   3                   0                   0                   0                   0                   0                   0
                   2                   4                   0                   0                   0                   0                   0                   0
                   2                   5                   0                   0                   0                   0                   0                   0
                   2                   6                   0                   0                   0                   0                   0                   0
                   2                   7                   0                   0                   0                   0                   0                   0
                   2                   8                   0                   0                   0                   0                   0                   0
                   3                   1                   0                   0                   0                   0                   0                   0
                   3                   2                   0                   0                   0                   0                   0                   0
                   3                   3                   0                   0                   0                   0                   0                   0
                   3                   4                   0                   0                   0                   0                   0                   0
                   3                   5                   0                   0                   0                   0                   0                   0
                   3                   6                   0                   0                   0                   0                   0                   0
                   3                   7                   0                   0                   0                   0                   0                   0
                   3                   8                   0                   0                   0                   0                   0                   0

***** Reaction Force Data ******
              NodeNo           Magnitude             X Force             Y Force             Z Force----------------------------------------------------------------------------------------------------
                   1         56.19430572        -54.59622499         -9.09824803         9.709484786
                   2      0.001777933243    -0.0002710695708      -0.00175197033     -0.000134788234
                   3     1.990550315e-13    -3.197442311e-14    -1.900701818e-13     -4.97379915e-14
                   4     8.658098232e-14    -7.804867863e-14    -3.730349363e-14     3.622102618e-15
                   5         56.19430572        -54.59622499         -9.09824803        -9.709484786
                   6      0.001777933243    -0.0002710695709      -0.00175197033      0.000134788234
                   7      1.19558185e-13     -4.97379915e-14    -1.083577672e-13     8.881784197e-15
                   8     5.821338796e-14     4.440892099e-16    -5.506706202e-14     1.887379142e-14
                   9         56.19430572         54.59622499         -9.09824803        -9.709484786
                  10      0.001777933243     0.0002710695709      -0.00175197033      0.000134788234
                  11     8.812681551e-14    -1.776356839e-14    -6.572520306e-14    -5.595524044e-14
                  12     2.189362765e-13     9.114931032e-14     1.971756092e-13    -2.732536419e-14
                  13         56.19430572         54.59622499         -9.09824803         9.709484786
                  14      0.001777933243     0.0002710695709      -0.00175197033     -0.000134788234
                  15     8.417687251e-14    -3.552713679e-14     2.131628207e-14     7.327471963e-14
                  16     1.496992347e-13     9.103828802e-14     1.154631946e-13      2.81094592e-14

*Increment 92

***** Displacement Data ******
              NodeNo           Magnitude      X Displacement      Y Displacement      Z Displacement
----------------------------------------------------------------------------------------------------
                   1                   0                   0                   0                   0
                   2      0.004991180392      0.003221397934      0.003783573665    -0.0004680249747
                   3       0.01363123185      0.005156672134       0.01261726278    -0.0001545775858
                   4       0.02472806995      0.005806920026       0.02403647399    -7.100431949e-05
                   5                   0                   0                   0                   0
                   6      0.004991180392      0.003221397934      0.003783573665     0.0004680249747
                   7       0.01363123185      0.005156672134       0.01261726278     0.0001545775858
                   8       0.02472806995      0.005806920026       0.02403647399     7.100431949e-05
                   9                   0                   0                   0                   0
                  10      0.004991180392     -0.003221397934      0.003783573665     0.0004680249747
                  11       0.01363123185     -0.005156672134       0.01261726278     0.0001545775858
                  12       0.02472806995     -0.005806920026       0.02403647399     7.100431949e-05
                  13                   0                   0                   0                   0
                  14      0.004991180392     -0.003221397934      0.003783573665    -0.0004680249747
                  15       0.01363123185     -0.005156672134       0.01261726278    -0.0001545775858
                  16       0.02472806995     -0.005806920026       0.02403647399    -7.100431949e-05

***** Stress Data ******
          Element No         Integral No           Stress XX           Stress YY           Stress ZZ           Stress XY           Stress XZ           Stress YZ               Mises            YieldFlg
                   1                   1         176.8015629        -96.79257841        -80.00898452         178.3929445        -11.46340781         8.391796941         408.1925699                True
                   1                   2         177.3437754        -123.0975649        -54.24621053        -104.8141688        -12.60067239         34.42567719           333.63072               False
                   1                   3        -177.3437754         123.0975649         54.24621053        -104.8141688         12.60067239         34.42567719           333.63072               False
                   1                   4        -176.8015629         96.79257841         80.00898452         178.3929445         11.46340781         8.391796941         408.1925699                True
                   1                   5         176.8015629        -96.79257841        -80.00898452         178.3929445         11.46340781        -8.391796941         408.1925699                True
                   1                   6         177.3437754        -123.0975649        -54.24621053        -104.8141688         12.60067239        -34.42567719           333.63072               False
                   1                   7        -177.3437754         123.0975649         54.24621053        -104.8141688        -12.60067239        -34.42567719           333.63072               False
                   1                   8        -176.8015629         96.79257841         80.00898452         178.3929445        -11.46340781        -8.391796941         408.1925699                True
                   2                   1         95.34645846        -85.14548537         -10.2009731         127.0459719         8.438968162         37.47225614         278.4157618               False
                   2                   2          106.598416        -73.89352782         -32.7048882        -53.44597192         8.438968162         20.59431981         192.0808957               False
                   2                   3         -106.598416         73.89352782          32.7048882        -53.44597192        -8.438968162         20.59431981         192.0808957               False
                   2                   4        -95.34645846         85.14548537          10.2009731         127.0459719        -8.438968162         37.47225614         278.4157618               False
                   2                   5         95.34645846        -85.14548537         -10.2009731         127.0459719        -8.438968162        -37.47225614         278.4157618               False
                   2                   6          106.598416        -73.89352782         -32.7048882        -53.44597192        -8.438968162        -20.59431981         192.0808957               False
                   2                   7         -106.598416         73.89352782          32.7048882        -53.44597192         8.438968162        -20.59431981         192.0808957               False
                   2                   8        -95.34645846         85.14548537          10.2009731         127.0459719         8.438968162        -37.47225614         278.4157618               False
                   3                   1          31.9169879        -28.72790977        -3.189078134         67.12244883         2.250049477         12.76941582         129.6220167               False
                   3                   2         34.91705387         -25.7278438        -9.189210072         6.477551166         2.250049477         8.269316863         57.39821642               False
                   3                   3        -34.91705387          25.7278438         9.189210072         6.477551166        -2.250049477         8.269316863         57.39821642               False
                   3                   4         -31.9169879         28.72790977         3.189078134         67.12244883        -2.250049477         12.76941582         129.6220167               False
                   3                   5          31.9169879        -28.72790977        -3.189078134         67.12244883        -2.250049477        -12.76941582         129.6220167               False
                   3                   6         34.91705387         -25.7278438        -9.189210072         6.477551166        -2.250049477        -8.269316863         57.39821642               False
                   3                   7        -34.91705387          25.7278438         9.189210072         6.477551166         2.250049477        -8.269316863         57.39821642               False
                   3                   8         -31.9169879         28.72790977         3.189078134         67.12244883         2.250049477        -12.76941582         129.6220167               False

***** Strain Data ******
          Element No         Integral No           Strain XX           Strain YY           Strain ZZ           Strain XY           Strain XZ           Strain YZ
                   1                   1      0.001201847969    -0.0006580269948    -0.0005438209746      0.002422050696    -0.0001560083249     0.0001142060202
                   1                   2      0.001097842419    -0.0007620325447    -0.0003358098747     -0.001297699233    -0.0001560083249       0.00042622267
                   1                   3     -0.001097842419     0.0007620325447     0.0003358098747     -0.001297699233     0.0001560083249       0.00042622267
                   1                   4     -0.001201847969     0.0006580269948     0.0005438209746      0.002422050696     0.0001560083249     0.0001142060202
                   1                   5      0.001201847969    -0.0006580269948    -0.0005438209746      0.002422050696     0.0001560083249    -0.0001142060202
                   1                   6      0.001097842419    -0.0007620325447    -0.0003358098747     -0.001297699233     0.0001560083249      -0.00042622267
                   1                   7     -0.001097842419     0.0007620325447     0.0003358098747     -0.001297699233    -0.0001560083249      -0.00042622267
                   1                   8     -0.001201847969     0.0006580269948     0.0005438209746      0.002422050696    -0.0001560083249    -0.0001142060202
                   2                   1      0.000590239981    -0.0005270910999    -6.314888107e-05      0.001572950128      0.000104482463     0.0004639422188
                   2                   2     0.0006598949563    -0.0004574361246    -0.0002024588317    -0.0006617120332      0.000104482463     0.0002549772929
                   2                   3    -0.0006598949563     0.0004574361246     0.0002024588317    -0.0006617120332     -0.000104482463     0.0002549772929
                   2                   4     -0.000590239981     0.0005270910999     6.314888107e-05      0.001572950128     -0.000104482463     0.0004639422188
                   2                   5      0.000590239981    -0.0005270910999    -6.314888107e-05      0.001572950128     -0.000104482463    -0.0004639422188
                   2                   6     0.0006598949563    -0.0004574361246    -0.0002024588317    -0.0006617120332     -0.000104482463    -0.0002549772929
                   2                   7    -0.0006598949563     0.0004574361246     0.0002024588317    -0.0006617120332      0.000104482463    -0.0002549772929
                   2                   8     -0.000590239981     0.0005270910999     6.314888107e-05      0.001572950128      0.000104482463    -0.0004639422188
                   3                   1     0.0001975813537    -0.0001778394414    -1.974191226e-05     0.0008310398427     2.785775543e-05     0.0001580975292
                   3                   2     0.0002161531906    -0.0001592676045    -5.688558616e-05     8.019825254e-05     2.785775543e-05     0.0001023820183
                   3                   3    -0.0002161531906     0.0001592676045     5.688558616e-05     8.019825254e-05    -2.785775543e-05     0.0001023820183
                   3                   4    -0.0001975813537     0.0001778394414     1.974191226e-05     0.0008310398427    -2.785775543e-05     0.0001580975292
                   3                   5     0.0001975813537    -0.0001778394414    -1.974191226e-05     0.0008310398427    -2.785775543e-05    -0.0001580975292
                   3                   6     0.0002161531906    -0.0001592676045    -5.688558616e-05     8.019825254e-05    -2.785775543e-05    -0.0001023820183
                   3                   7    -0.0002161531906     0.0001592676045     5.688558616e-05     8.019825254e-05     2.785775543e-05    -0.0001023820183
                   3                   8    -0.0001975813537     0.0001778394414     1.974191226e-05     0.0008310398427     2.785775543e-05    -0.0001580975292

***** Plastic Strain Data ******
          Element No         Integral No          PStrain XX          PStrain YY          PStrain ZZ          PStrain XY          PStrain XZ          PStrain YZ
                   1                   1     0.0001073621036    -5.883484273e-05    -4.852726083e-05     0.0002133761446    -1.408041872e-05      1.03075819e-05
                   1                   2                   0                   0                   0                   0                   0                   0
                   1                   3                   0                   0                   0                   0                   0                   0
                   1                   4    -0.0001073621036     5.883484273e-05     4.852726083e-05     0.0002133761446     1.408041872e-05      1.03075819e-05
                   1                   5     0.0001073621036    -5.883484273e-05    -4.852726083e-05     0.0002133761446     1.408041872e-05     -1.03075819e-05
                   1                   6                   0                   0                   0                   0                   0                   0
                   1                   7                   0                   0                   0                   0                   0                   0
                   1                   8    -0.0001073621036     5.883484273e-05     4.852726083e-05     0.0002133761446    -1.408041872e-05     -1.03075819e-05
                   2                   1                   0                   0                   0                   0                   0                   0
                   2                   2                   0                   0                   0                   0                   0                   0
                   2                   3                   0                   0                   0                   0                   0                   0
                   2                   4                   0                   0                   0                   0                   0                   0
                   2                   5                   0                   0                   0                   0                   0                   0
                   2                   6                   0                   0                   0                   0                   0                   0
                   2                   7                   0                   0                   0                   0                   0                   0
                   2                   8                   0                   0                   0                   0                   0                   0
                   3                   1                   0                   0                   0                   0                   0                   0
                   3                   2                   0                   0                   0                   0                   0                   0
                   3                   3                   0                   0                   0                   0                   0                   0
                   3                   4                   0                   0                   0                   0                   0                   0
                   3                   5                   0                   0                   0                   0                   0                   0
                   3                   6                   0                   0                   0                   0                   0                   0
                   3                   7                   0                   0                   0                   0                   0                   0
                   3                   8                   0                   0                   0                   0                   0                   0

***** Reaction Force Data ******
              NodeNo           Magnitude             X Force             Y Force             Z Force----------------------------------------------------------------------------------------------------
                   1         56.80013812        -55.19429816        -9.197346965         9.759813034
                   2      0.002690062924    -0.0003957724468     -0.002653035161    -0.0002029954226
                   3     5.312808695e-14    -7.105427358e-15     3.552713679e-14    -3.885780586e-14
                   4     1.658489266e-13     9.492406861e-14     -1.33226763e-13    -2.731148641e-14
                   5         56.80013812        -55.19429816        -9.197346965        -9.759813034
                   6      0.002690062924    -0.0003957724468     -0.002653035161     0.0002029954226
                   7     7.402448962e-14     5.329070518e-14     1.953992523e-14     4.751754545e-14
                   8      1.74463353e-13     7.638334409e-14    -1.563194019e-13     1.293409824e-14
                   9         56.80013812         55.19429816        -9.197346965        -9.759813034
                  10      0.002690062924     0.0003957724467     -0.002653035161     0.0002029954226
                  11     1.236150455e-13    -4.263256415e-14     8.171241461e-14    -8.237854843e-14
                  12     3.638172912e-14     5.384581669e-15     3.197442311e-14     -1.65006897e-14
                  13         56.80013812         55.19429816        -9.197346965         9.759813034
                  14      0.002690062924     0.0003957724467     -0.002653035161    -0.0002029954226
                  15      1.38323809e-13    -3.907985047e-14     9.237055565e-14     9.525713551e-14
                  16     8.412759868e-14    -4.662936703e-15     7.993605777e-14     2.580574643e-14

*Increment 93

***** Displacement Data ******
              NodeNo           Magnitude      X Displacement      Y Displacement      Z Displacement
----------------------------------------------------------------------------------------------------
                   1                   0                   0                   0                   0
                   2      0.005125838906      0.003298399336      0.003894586713    -0.0004764248537
                   3       0.01393873029      0.005255497605       0.01290905508    -0.0001557048039
                   4        0.0252402525      0.005912705511       0.02453782963     -7.19514385e-05
                   5                   0                   0                   0                   0
                   6      0.005125838906      0.003298399336      0.003894586713     0.0004764248537
                   7       0.01393873029      0.005255497605       0.01290905508     0.0001557048039
                   8        0.0252402525      0.005912705511       0.02453782963      7.19514385e-05
                   9                   0                   0                   0                   0
                  10      0.005125838906     -0.003298399336      0.003894586713     0.0004764248537
                  11       0.01393873029     -0.005255497605       0.01290905508     0.0001557048039
                  12        0.0252402525     -0.005912705511       0.02453782963      7.19514385e-05
                  13                   0                   0                   0                   0
                  14      0.005125838906     -0.003298399336      0.003894586713    -0.0004764248537
                  15       0.01393873029     -0.005255497605       0.01290905508    -0.0001557048039
                  16        0.0252402525     -0.005912705511       0.02453782963     -7.19514385e-05

***** Stress Data ******
          Element No         Integral No           Stress XX           Stress YY           Stress ZZ           Stress XY           Stress XZ           Stress YZ               Mises            YieldFlg
                   1                   1         176.8661449        -96.77291324        -80.09323167         180.0358109        -11.39243437         8.339840784         410.4010656                True
                   1                   2         181.7195254        -125.9032948        -55.81623063        -105.6578143        -12.82682298         35.04353209         340.0765597               False
                   1                   3        -181.7195254         125.9032948         55.81623063        -105.6578143         12.82682298         35.04353209         340.0765597               False
                   1                   4        -176.8661449         96.77291324         80.09323167         180.0358109         11.39243437         8.339840784         410.4010656                True
                   1                   5         176.8661449        -96.77291324        -80.09323167         180.0358109         11.39243437        -8.339840784         410.4010656                True
                   1                   6         181.7195254        -125.9032948        -55.81623063        -105.6578143         12.82682298        -35.04353209         340.0765597               False
                   1                   7        -181.7195254         125.9032948         55.81623063        -105.6578143        -12.82682298        -35.04353209         340.0765597               False
                   1                   8        -176.8661449         96.77291324         80.09323167         180.0358109        -11.39243437        -8.339840784         410.4010656                True
                   2                   1         96.27668154        -86.25066821        -10.02601333         128.4636749         8.634770572         38.11232744         281.6086305               False
                   2                   2          107.789709        -74.73764078        -33.05206818        -54.06367487         8.634770572          20.8427863         194.2697844               False
                   2                   3         -107.789709         74.73764078         33.05206818        -54.06367487        -8.634770572          20.8427863         194.2697844               False
                   2                   4        -96.27668154         86.25066821         10.02601333         128.4636749        -8.634770572         38.11232744         281.6086305               False
                   2                   5         96.27668154        -86.25066821        -10.02601333         128.4636749        -8.634770572        -38.11232744         281.6086305               False
                   2                   6          107.789709        -74.73764078        -33.05206818        -54.06367487        -8.634770572         -20.8427863         194.2697844               False
                   2                   7         -107.789709         74.73764078         33.05206818        -54.06367487         8.634770572         -20.8427863         194.2697844               False
                   2                   8        -96.27668154         86.25066821         10.02601333         128.4636749         8.634770572        -38.11232744         281.6086305               False
                   3                   1         32.28201532        -29.01200307        -3.270012249         67.84700919         2.254898298         12.87099541         131.0101827               False
                   3                   2         35.28854638          -26.005472        -9.283074377         6.552990808         2.254898298         8.361198813         58.01224031               False
                   3                   3        -35.28854638           26.005472         9.283074377         6.552990808        -2.254898298         8.361198813         58.01224031               False
                   3                   4        -32.28201532         29.01200307         3.270012249         67.84700919        -2.254898298         12.87099541         131.0101827               False
                   3                   5         32.28201532        -29.01200307        -3.270012249         67.84700919        -2.254898298        -12.87099541         131.0101827               False
                   3                   6         35.28854638          -26.005472        -9.283074377         6.552990808        -2.254898298        -8.361198813         58.01224031               False
                   3                   7        -35.28854638           26.005472         9.283074377         6.552990808         2.254898298        -8.361198813         58.01224031               False
                   3                   8        -32.28201532         29.01200307         3.270012249         67.84700919         2.254898298        -12.87099541         131.0101827               False

***** Strain Data ******
          Element No         Integral No           Strain XX           Strain YY           Strain ZZ           Strain XY           Strain XZ           Strain YZ
                   1                   1      0.001230802585    -0.0006735291591    -0.0005572734262      0.002500519122    -0.0001588082846      0.000116255733
                   1                   2      0.001124930396    -0.0007794013488    -0.0003455290468     -0.001308144367    -0.0001588082846     0.0004338723021
                   1                   3     -0.001124930396     0.0007794013488     0.0003455290468     -0.001308144367     0.0001588082846     0.0004338723021
                   1                   4     -0.001230802585     0.0006735291591     0.0005572734262      0.002500519122     0.0001588082846      0.000116255733
                   1                   5      0.001230802585    -0.0006735291591    -0.0005572734262      0.002500519122     0.0001588082846     -0.000116255733
                   1                   6      0.001124930396    -0.0007794013488    -0.0003455290468     -0.001308144367     0.0001588082846    -0.0004338723021
                   1                   7     -0.001124930396     0.0007794013488     0.0003455290468     -0.001308144367    -0.0001588082846    -0.0004338723021
                   1                   8     -0.001230802585     0.0006735291591     0.0005572734262      0.002500519122    -0.0001588082846     -0.000116255733
                   2                   1     0.0005959985047     -0.000533932708    -6.206579677e-05      0.001590502641     0.0001069066833     0.0004718669112
                   2                   2     0.0006672696269    -0.0004626615858    -0.0002046080411    -0.0006693597842     0.0001069066833     0.0002580535447
                   2                   3    -0.0006672696269     0.0004626615858     0.0002046080411    -0.0006693597842    -0.0001069066833     0.0002580535447
                   2                   4    -0.0005959985047      0.000533932708     6.206579677e-05      0.001590502641    -0.0001069066833     0.0004718669112
                   2                   5     0.0005959985047     -0.000533932708    -6.206579677e-05      0.001590502641    -0.0001069066833    -0.0004718669112
                   2                   6     0.0006672696269    -0.0004626615858    -0.0002046080411    -0.0006693597842    -0.0001069066833    -0.0002580535447
                   2                   7    -0.0006672696269     0.0004626615858     0.0002046080411    -0.0006693597842     0.0001069066833    -0.0002580535447
                   2                   8    -0.0005959985047      0.000533932708     6.206579677e-05      0.001590502641     0.0001069066833    -0.0004718669112
                   3                   1     0.0001998410472    -0.0001795981142    -2.024293297e-05       0.00084001059     2.791778845e-05     0.0001593551813
                   3                   2     0.0002184529062    -0.0001609862553    -5.746665091e-05     8.113226714e-05     2.791778845e-05     0.0001035196044
                   3                   3    -0.0002184529062     0.0001609862553     5.746665091e-05     8.113226714e-05    -2.791778845e-05     0.0001035196044
                   3                   4    -0.0001998410472     0.0001795981142     2.024293297e-05       0.00084001059    -2.791778845e-05     0.0001593551813
                   3                   5     0.0001998410472    -0.0001795981142    -2.024293297e-05       0.00084001059    -2.791778845e-05    -0.0001593551813
                   3                   6     0.0002184529062    -0.0001609862553    -5.746665091e-05     8.113226714e-05    -2.791778845e-05    -0.0001035196044
                   3                   7    -0.0002184529062     0.0001609862553     5.746665091e-05     8.113226714e-05     2.791778845e-05    -0.0001035196044
                   3                   8    -0.0001998410472     0.0001795981142     2.024293297e-05       0.00084001059     2.791778845e-05    -0.0001593551813

***** Plastic Strain Data ******
          Element No         Integral No          PStrain XX          PStrain YY          PStrain ZZ          PStrain XY          PStrain XZ          PStrain YZ
                   1                   1     0.0001359169263    -7.445874384e-05    -6.145818249e-05     0.0002715043205    -1.775909706e-05     1.300056135e-05
                   1                   2                   0                   0                   0                   0                   0                   0
                   1                   3                   0                   0                   0                   0                   0                   0
                   1                   4    -0.0001359169263     7.445874384e-05     6.145818249e-05     0.0002715043205     1.775909706e-05     1.300056135e-05
                   1                   5     0.0001359169263    -7.445874384e-05    -6.145818249e-05     0.0002715043205     1.775909706e-05    -1.300056135e-05
                   1                   6                   0                   0                   0                   0                   0                   0
                   1                   7                   0                   0                   0                   0                   0                   0
                   1                   8    -0.0001359169263     7.445874384e-05     6.145818249e-05     0.0002715043205    -1.775909706e-05    -1.300056135e-05
                   2                   1                   0                   0                   0                   0                   0                   0
                   2                   2                   0                   0                   0                   0                   0                   0
                   2                   3                   0                   0                   0                   0                   0                   0
                   2                   4                   0                   0                   0                   0                   0                   0
                   2                   5                   0                   0                   0                   0                   0                   0
                   2                   6                   0                   0                   0                   0                   0                   0
                   2                   7                   0                   0                   0                   0                   0                   0
                   2                   8                   0                   0                   0                   0                   0                   0
                   3                   1                   0                   0                   0                   0                   0                   0
                   3                   2                   0                   0                   0                   0                   0                   0
                   3                   3                   0                   0                   0                   0                   0                   0
                   3                   4                   0                   0                   0                   0                   0                   0
                   3                   5                   0                   0                   0                   0                   0                   0
                   3                   6                   0                   0                   0                   0                   0                   0
                   3                   7                   0                   0                   0                   0                   0                   0
                   3                   8                   0                   0                   0                   0                   0                   0

***** Reaction Force Data ******
              NodeNo           Magnitude             X Force             Y Force             Z Force----------------------------------------------------------------------------------------------------
                   1         57.40795293        -55.79410266        -9.297249577         9.810826567
                   2      0.002786732191    -0.0003964929161     -0.002750422522    -0.0002093934623
                   3     6.941193905e-14      4.97379915e-14     4.085620731e-14    -2.597921878e-14
                   4      1.31585675e-13    -1.000310945e-13     8.171241461e-14     2.513267372e-14
                   5         57.40795293        -55.79410266        -9.297249577        -9.810826567
                   6      0.002786732191    -0.0003964929161     -0.002750422522     0.0002093934623
                   7     1.421369938e-13     1.243449788e-13     4.618527782e-14    -5.107025913e-14
                   8     1.496709526e-13    -1.127986593e-13     8.881784197e-14    -4.229949724e-14
                   9         57.40795293         55.79410266        -9.297249577        -9.810826567
                  10      0.002786732191     0.0003964929161     -0.002750422522     0.0002093934623
                  11     1.081411938e-13     6.394884622e-14    -7.993605777e-14     3.486100297e-14
                  12     1.404575895e-13    -4.501954365e-14    -1.083577672e-13     7.720213357e-14
                  13         57.40795293         55.79410266        -9.297249577         9.810826567
                  14      0.002786732191     0.0003964929161     -0.002750422522    -0.0002093934623
                  15     1.287094725e-13     1.278976924e-13    -3.552713679e-15     1.398881011e-14
                  16     5.366102562e-14    -4.662936703e-14    -1.421085472e-14    -2.243344399e-14

*Increment 94

***** Displacement Data ******
              NodeNo           Magnitude      X Displacement      Y Displacement      Z Displacement
----------------------------------------------------------------------------------------------------
                   1                   0                   0                   0                   0
                   2      0.005260900635         0.003375543      0.004005960359    -0.0004848366209
                   3       0.01424690858      0.005354468167       0.01320149534    -0.0001568300375
                   4       0.02575338911      0.006018635701       0.02504012301    -7.289918673e-05
                   5                   0                   0                   0                   0
                   6      0.005260900635         0.003375543      0.004005960359     0.0004848366209
                   7       0.01424690858      0.005354468167       0.01320149534     0.0001568300375
                   8       0.02575338911      0.006018635701       0.02504012301     7.289918673e-05
                   9                   0                   0                   0                   0
                  10      0.005260900635        -0.003375543      0.004005960359     0.0004848366209
                  11       0.01424690858     -0.005354468167       0.01320149534     0.0001568300375
                  12       0.02575338911     -0.006018635701       0.02504012301     7.289918673e-05
                  13                   0                   0                   0                   0
                  14      0.005260900635        -0.003375543      0.004005960359    -0.0004848366209
                  15       0.01424690858     -0.005354468167       0.01320149534    -0.0001568300375
                  16       0.02575338911     -0.006018635701       0.02504012301    -7.289918673e-05

***** Stress Data ******
          Element No         Integral No           Stress XX           Stress YY           Stress ZZ           Stress XY           Stress XZ           Stress YZ               Mises            YieldFlg
                   1                   1         176.9449753        -96.76226871        -80.18270657         181.6681926        -11.32405154         8.289781074         412.6178032                True
                   1                   2         186.1035378        -128.7140303        -57.38950745        -106.4904589        -13.05329364         35.66226143         346.5404529               False
                   1                   3        -186.1035378         128.7140303         57.38950745        -106.4904589         13.05329364         35.66226143         346.5404529               False
                   1                   4        -176.9449753         96.76226871         80.18270657         181.6681926         11.32405154         8.289781074         412.6178032                True
                   1                   5         176.9449753        -96.76226871        -80.18270657         181.6681926         11.32405154        -8.289781074         412.6178032                True
                   1                   6         186.1035378        -128.7140303        -57.38950745        -106.4904589         13.05329364        -35.66226143         346.5404529               False
                   1                   7        -186.1035378         128.7140303         57.38950745        -106.4904589        -13.05329364        -35.66226143         346.5404529               False
                   1                   8        -176.9449753         96.76226871         80.18270657         181.6681926        -11.32405154        -8.289781074         412.6178032                True
                   2                   1         97.20652366        -87.35649591        -9.850027748         129.8815098         8.830946478         38.75323408         284.8033515               False
                   2                   2          108.981119        -75.58190061        -33.39921835        -54.68150978         8.830946478         21.09134113         196.4591995               False
                   2                   3         -108.981119         75.58190061         33.39921835        -54.68150978        -8.830946478         21.09134113         196.4591995               False
                   2                   4        -97.20652366         87.35649591         9.850027748         129.8815098        -8.830946478         38.75323408         284.8033515               False
                   2                   5         97.20652366        -87.35649591        -9.850027748         129.8815098        -8.830946478        -38.75323408         284.8033515               False
                   2                   6          108.981119        -75.58190061        -33.39921835        -54.68150978        -8.830946478        -21.09134113         196.4591995               False
                   2                   7         -108.981119         75.58190061         33.39921835        -54.68150978         8.830946478        -21.09134113         196.4591995               False
                   2                   8        -97.20652366         87.35649591         9.850027748         129.8815098         8.830946478        -38.75323408         284.8033515               False
                   3                   1          32.6471077        -29.29599529        -3.351112416         68.57155149         2.259676751         12.97244144          132.398348               False
                   3                   2         35.66001004        -26.28309295        -9.376917085         6.628448505         2.259676751         8.453087934         58.62625086               False
                   3                   3        -35.66001004         26.28309295         9.376917085         6.628448505        -2.259676751         8.453087934         58.62625086               False
                   3                   4         -32.6471077         29.29599529         3.351112416         68.57155149        -2.259676751         12.97244144          132.398348               False
                   3                   5          32.6471077        -29.29599529        -3.351112416         68.57155149        -2.259676751        -12.97244144          132.398348               False
                   3                   6         35.66001004        -26.28309295        -9.376917085         6.628448505        -2.259676751        -8.453087934         58.62625086               False
                   3                   7        -35.66001004         26.28309295         9.376917085         6.628448505         2.259676751        -8.453087934         58.62625086               False
                   3                   8         -32.6471077         29.29599529         3.351112416         68.57155149         2.259676751        -12.97244144          132.398348               False

***** Strain Data ******
          Element No         Integral No           Strain XX           Strain YY           Strain ZZ           Strain XY           Strain XZ           Strain YZ
                   1                   1      0.001259810991    -0.0006890596687    -0.0005707513221      0.002579288019     -0.000161612207     0.0001183083466
                   1                   2      0.001152069519      -0.00079680114    -0.0003552683794       -0.0013184533     -0.000161612207     0.0004415327606
                   1                   3     -0.001152069519       0.00079680114     0.0003552683794       -0.0013184533      0.000161612207     0.0004415327606
                   1                   4     -0.001259810991     0.0006890596687     0.0005707513221      0.002579288019      0.000161612207     0.0001183083466
                   1                   5      0.001259810991    -0.0006890596687    -0.0005707513221      0.002579288019      0.000161612207    -0.0001183083466
                   1                   6      0.001152069519      -0.00079680114    -0.0003552683794       -0.0013184533      0.000161612207    -0.0004415327606
                   1                   7     -0.001152069519       0.00079680114     0.0003552683794       -0.0013184533     -0.000161612207    -0.0004415327606
                   1                   8     -0.001259810991     0.0006890596687     0.0005707513221      0.002579288019     -0.000161612207    -0.0001183083466
                   2                   1     0.0006017546703     -0.000540778308    -6.097636225e-05      0.001608056788     0.0001093355278     0.0004798019458
                   2                   2     0.0006746450221    -0.0004678879561     -0.000206757066    -0.0006770091688     0.0001093355278     0.0002611308901
                   2                   3    -0.0006746450221     0.0004678879561      0.000206757066    -0.0006770091688    -0.0001093355278     0.0002611308901
                   2                   4    -0.0006017546703      0.000540778308     6.097636225e-05      0.001608056788    -0.0001093355278     0.0004798019458
                   2                   5     0.0006017546703     -0.000540778308    -6.097636225e-05      0.001608056788    -0.0001093355278    -0.0004798019458
                   2                   6     0.0006746450221    -0.0004678879561     -0.000206757066    -0.0006770091688    -0.0001093355278    -0.0002611308901
                   2                   7    -0.0006746450221     0.0004678879561      0.000206757066    -0.0006770091688     0.0001093355278    -0.0002611308901
                   2                   8    -0.0006017546703      0.000540778308     6.097636225e-05      0.001608056788     0.0001093355278    -0.0004798019458
                   3                   1     0.0002021011429    -0.0001813561613    -2.074498162e-05     0.0008489811137     2.797695025e-05     0.0001606111797
                   3                   2     0.0002207524431    -0.0001627048611    -5.804758195e-05      8.20665053e-05     2.797695025e-05     0.0001046572792
                   3                   3    -0.0002207524431     0.0001627048611     5.804758195e-05      8.20665053e-05    -2.797695025e-05     0.0001046572792
                   3                   4    -0.0002021011429     0.0001813561613     2.074498162e-05     0.0008489811137    -2.797695025e-05     0.0001606111797
                   3                   5     0.0002021011429    -0.0001813561613    -2.074498162e-05     0.0008489811137    -2.797695025e-05    -0.0001606111797
                   3                   6     0.0002207524431    -0.0001627048611    -5.804758195e-05      8.20665053e-05    -2.797695025e-05    -0.0001046572792
                   3                   7    -0.0002207524431     0.0001627048611     5.804758195e-05      8.20665053e-05     2.797695025e-05    -0.0001046572792
                   3                   8    -0.0002021011429     0.0001813561613     2.074498162e-05     0.0008489811137     2.797695025e-05    -0.0001606111797

***** Plastic Strain Data ******
          Element No         Integral No          PStrain XX          PStrain YY          PStrain ZZ          PStrain XY          PStrain XZ          PStrain YZ
                   1                   1     0.0001644373343    -9.005514809e-05    -7.438218619e-05     0.0003300627768    -2.140966411e-05      1.56729619e-05
                   1                   2                   0                   0                   0                   0                   0                   0
                   1                   3                   0                   0                   0                   0                   0                   0
                   1                   4    -0.0001644373343     9.005514809e-05     7.438218619e-05     0.0003300627768     2.140966411e-05      1.56729619e-05
                   1                   5     0.0001644373343    -9.005514809e-05    -7.438218619e-05     0.0003300627768     2.140966411e-05     -1.56729619e-05
                   1                   6                   0                   0                   0                   0                   0                   0
                   1                   7                   0                   0                   0                   0                   0                   0
                   1                   8    -0.0001644373343     9.005514809e-05     7.438218619e-05     0.0003300627768    -2.140966411e-05     -1.56729619e-05
                   2                   1                   0                   0                   0                   0                   0                   0
                   2                   2                   0                   0                   0                   0                   0                   0
                   2                   3                   0                   0                   0                   0                   0                   0
                   2                   4                   0                   0                   0                   0                   0                   0
                   2                   5                   0                   0                   0                   0                   0                   0
                   2                   6                   0                   0                   0                   0                   0                   0
                   2                   7                   0                   0                   0                   0                   0                   0
                   2                   8                   0                   0                   0                   0                   0                   0
                   3                   1                   0                   0                   0                   0                   0                   0
                   3                   2                   0                   0                   0                   0                   0                   0
                   3                   3                   0                   0                   0                   0                   0                   0
                   3                   4                   0                   0                   0                   0                   0                   0
                   3                   5                   0                   0                   0                   0                   0                   0
                   3                   6                   0                   0                   0                   0                   0                   0
                   3                   7                   0                   0                   0                   0                   0                   0
                   3                   8                   0                   0                   0                   0                   0                   0

***** Reaction Force Data ******
              NodeNo           Magnitude             X Force             Y Force             Z Force----------------------------------------------------------------------------------------------------
                   1         58.01606042        -56.39404568        -9.397216718         9.862413263
                   2      0.002818061898    -0.0003877512663     -0.002783282093    -0.0002108615847
                   3     8.132078623e-14    -7.815970093e-14    -1.598721155e-14    -1.576516695e-14
                   4     1.544539908e-13    -7.582823258e-14      1.33226763e-13     1.888766921e-14
                   5         58.01606042        -56.39404568        -9.397216718        -9.862413263
                   6      0.002818061898    -0.0003877512662     -0.002783282093     0.0002108615847
                   7     1.143268837e-13    -3.907985047e-14    -7.815970093e-14     7.371880884e-14
                   8     6.950459451e-14    -3.019806627e-14     3.907985047e-14     4.890532423e-14
                   9         58.01606042         56.39404568        -9.397216718        -9.862413263
                  10      0.002818061898     0.0003877512663     -0.002783282093     0.0002108615847
                  11     1.178973217e-13     1.030286967e-13    -5.329070518e-14    -2.109423747e-14
                  12     1.111107555e-13      5.83977311e-14     9.414691249e-14     8.465450563e-15
                  13         58.01606042         56.39404568        -9.397216718         9.862413263
                  14      0.002818061898     0.0003877512663     -0.002783282093    -0.0002108615847
                  15     1.090625598e-13     3.197442311e-14    -8.881784197e-14    -5.462297281e-14
                  16     7.950832834e-14     2.797762022e-14    -2.486899575e-14    -7.014527847e-14

*Increment 95

***** Displacement Data ******
              NodeNo           Magnitude      X Displacement      Y Displacement      Z Displacement
----------------------------------------------------------------------------------------------------
                   1                   0                   0                   0                   0
                   2      0.005396325985      0.003452810177      0.004117660958    -0.0004932588083
                   3       0.01455569212      0.005453564723       0.01349451205    -0.0001579535317
                   4       0.02626736835      0.006124691545       0.02554324451    -7.384748648e-05
                   5                   0                   0                   0                   0
                   6      0.005396325985      0.003452810177      0.004117660958     0.0004932588083
                   7       0.01455569212      0.005453564723       0.01349451205     0.0001579535317
                   8       0.02626736835      0.006124691545       0.02554324451     7.384748648e-05
                   9                   0                   0                   0                   0
                  10      0.005396325985     -0.003452810177      0.004117660958     0.0004932588083
                  11       0.01455569212     -0.005453564723       0.01349451205     0.0001579535317
                  12       0.02626736835     -0.006124691545       0.02554324451     7.384748648e-05
                  13                   0                   0                   0                   0
                  14      0.005396325985     -0.003452810177      0.004117660958    -0.0004932588083
                  15       0.01455569212     -0.005453564723       0.01349451205    -0.0001579535317
                  16       0.02626736835     -0.006124691545       0.02554324451    -7.384748648e-05

***** Stress Data ******
          Element No         Integral No           Stress XX           Stress YY           Stress ZZ           Stress XY           Stress XZ           Stress YZ               Mises            YieldFlg
                   1                   1         177.0380319        -96.76062116         -80.2774107         183.2899571        -11.25824211         8.241605231         414.8420894                True
                   1                   2         190.4947187        -131.5291166        -58.96560213        -107.3124315        -13.28004484         36.28175723         353.0207972               False
                   1                   3        -190.4947187         131.5291166         58.96560213        -107.3124315         13.28004484         36.28175723         353.0207972               False
                   1                   4        -177.0380319         96.76062116          80.2774107         183.2899571         11.25824211         8.241605231         414.8420894                True
                   1                   5         177.0380319        -96.76062116         -80.2774107         183.2899571         11.25824211        -8.241605231         414.8420894                True
                   1                   6         190.4947187        -131.5291166        -58.96560213        -107.3124315         13.28004484        -36.28175723         353.0207972               False
                   1                   7        -190.4947187         131.5291166         58.96560213        -107.3124315        -13.28004484        -36.28175723         353.0207972               False
                   1                   8        -177.0380319         96.76062116          80.2774107         183.2899571        -11.25824211        -8.241605231         414.8420894                True
                   2                   1         98.13603187        -88.46288883        -9.673143046         131.2994604         9.027449755         39.39487289         287.9998215               False
                   2                   2         110.1726315        -76.42628915        -33.74634239        -55.29946035         9.027449755         21.33997338         198.6490925               False
                   2                   3        -110.1726315         76.42628915         33.74634239        -55.29946035        -9.027449755         21.33997338         198.6490925               False
                   2                   4        -98.13603187         88.46288883         9.673143046         131.2994604        -9.027449755         39.39487289         287.9998215               False
                   2                   5         98.13603187        -88.46288883        -9.673143046         131.2994604        -9.027449755        -39.39487289         287.9998215               False
                   2                   6         110.1726315        -76.42628915        -33.74634239        -55.29946035        -9.027449755        -21.33997338         198.6490925               False
                   2                   7        -110.1726315         76.42628915         33.74634239        -55.29946035         9.027449755        -21.33997338         198.6490925               False
                   2                   8        -98.13603187         88.46288883         9.673143046         131.2994604         9.027449755        -39.39487289         287.9998215               False
                   3                   1         33.01225703        -29.57989891        -3.432358129         69.29607797         2.264393524         13.07377039         133.7865204               False
                   3                   2          36.0314484        -26.56070754         -9.47074086          6.70392203         2.264393524          8.54498334         59.24025197               False
                   3                   3         -36.0314484         26.56070754          9.47074086          6.70392203        -2.264393524          8.54498334         59.24025197               False
                   3                   4        -33.01225703         29.57989891         3.432358129         69.29607797        -2.264393524         13.07377039         133.7865204               False
                   3                   5         33.01225703        -29.57989891        -3.432358129         69.29607797        -2.264393524        -13.07377039         133.7865204               False
                   3                   6          36.0314484        -26.56070754         -9.47074086          6.70392203        -2.264393524         -8.54498334         59.24025197               False
                   3                   7         -36.0314484         26.56070754          9.47074086          6.70392203         2.264393524         -8.54498334         59.24025197               False
                   3                   8        -33.01225703         29.57989891         3.432358129         69.29607797         2.264393524        -13.07377039         133.7865204               False

***** Strain Data ******
          Element No         Integral No           Strain XX           Strain YY           Strain ZZ           Strain XY           Strain XZ           Strain YZ
                   1                   1      0.001288866089    -0.0007046147961    -0.0005842512931      0.002658331666    -0.0001644196028      0.000120363503
                   1                   2      0.001179253021    -0.0008142278646    -0.0003650251561     -0.001328630104    -0.0001644196028     0.0004492027085
                   1                   3     -0.001179253021     0.0008142278646     0.0003650251561     -0.001328630104     0.0001644196028     0.0004492027085
                   1                   4     -0.001288866089     0.0007046147961     0.0005842512931      0.002658331666     0.0001644196028      0.000120363503
                   1                   5      0.001288866089    -0.0007046147961    -0.0005842512931      0.002658331666     0.0001644196028     -0.000120363503
                   1                   6      0.001179253021    -0.0008142278646    -0.0003650251561     -0.001328630104     0.0001644196028    -0.0004492027085
                   1                   7     -0.001179253021     0.0008142278646     0.0003650251561     -0.001328630104    -0.0001644196028    -0.0004492027085
                   1                   8     -0.001288866089     0.0007046147961     0.0005842512931      0.002658331666    -0.0001644196028     -0.000120363503
                   2                   1     0.0006075087687     -0.000547627407    -5.988136171e-05      0.001625612366     0.0001117684255     0.0004877460453
                   2                   2     0.0006820210524    -0.0004731151233    -0.0002089059291    -0.0006846599853     0.0001117684255     0.0002642091942
                   2                   3    -0.0006820210524     0.0004731151233     0.0002089059291    -0.0006846599853    -0.0001117684255     0.0002642091942
                   2                   4    -0.0006075087687      0.000547627407     5.988136171e-05      0.001625612366    -0.0001117684255     0.0004877460453
                   2                   5     0.0006075087687     -0.000547627407    -5.988136171e-05      0.001625612366    -0.0001117684255    -0.0004877460453
                   2                   6     0.0006820210524    -0.0004731151233    -0.0002089059291    -0.0006846599853    -0.0001117684255    -0.0002642091942
                   2                   7    -0.0006820210524     0.0004731151233     0.0002089059291    -0.0006846599853     0.0001117684255    -0.0002642091942
                   2                   8    -0.0006075087687      0.000547627407     5.988136171e-05      0.001625612366     0.0001117684255    -0.0004877460453
                   3                   1     0.0002043615912    -0.0001831136599    -2.124793127e-05     0.0008579514415      2.80353484e-05     0.0001618657286
                   3                   2     0.0002230518234    -0.0001644234276     -5.86283958e-05     8.300093942e-05      2.80353484e-05     0.0001057950318
                   3                   3    -0.0002230518234     0.0001644234276      5.86283958e-05     8.300093942e-05     -2.80353484e-05     0.0001057950318
                   3                   4    -0.0002043615912     0.0001831136599     2.124793127e-05     0.0008579514415     -2.80353484e-05     0.0001618657286
                   3                   5     0.0002043615912    -0.0001831136599    -2.124793127e-05     0.0008579514415     -2.80353484e-05    -0.0001618657286
                   3                   6     0.0002230518234    -0.0001644234276     -5.86283958e-05     8.300093942e-05     -2.80353484e-05    -0.0001057950318
                   3                   7    -0.0002230518234     0.0001644234276      5.86283958e-05     8.300093942e-05      2.80353484e-05    -0.0001057950318
                   3                   8    -0.0002043615912     0.0001831136599     2.124793127e-05     0.0008579514415      2.80353484e-05    -0.0001618657286

***** Plastic Strain Data ******
          Element No         Integral No          PStrain XX          PStrain YY          PStrain ZZ          PStrain XY          PStrain XZ          PStrain YZ
                   1                   1     0.0001929163681    -0.0001056204746    -8.729589353e-05     0.0003890274354    -2.503184327e-05     1.832458108e-05
                   1                   2                   0                   0                   0                   0                   0                   0
                   1                   3                   0                   0                   0                   0                   0                   0
                   1                   4    -0.0001929163681     0.0001056204746     8.729589353e-05     0.0003890274354     2.503184327e-05     1.832458108e-05
                   1                   5     0.0001929163681    -0.0001056204746    -8.729589353e-05     0.0003890274354     2.503184327e-05    -1.832458108e-05
                   1                   6                   0                   0                   0                   0                   0                   0
                   1                   7                   0                   0                   0                   0                   0                   0
                   1                   8    -0.0001929163681     0.0001056204746     8.729589353e-05     0.0003890274354    -2.503184327e-05    -1.832458108e-05
                   2                   1                   0                   0                   0                   0                   0                   0
                   2                   2                   0                   0                   0                   0                   0                   0
                   2                   3                   0                   0                   0                   0                   0                   0
                   2                   4                   0                   0                   0                   0                   0                   0
                   2                   5                   0                   0                   0                   0                   0                   0
                   2                   6                   0                   0                   0                   0                   0                   0
                   2                   7                   0                   0                   0                   0                   0                   0
                   2                   8                   0                   0                   0                   0                   0                   0
                   3                   1                   0                   0                   0                   0                   0                   0
                   3                   2                   0                   0                   0                   0                   0                   0
                   3                   3                   0                   0                   0                   0                   0                   0
                   3                   4                   0                   0                   0                   0                   0                   0
                   3                   5                   0                   0                   0                   0                   0                   0
                   3                   6                   0                   0                   0                   0                   0                   0
                   3                   7                   0                   0                   0                   0                   0                   0
                   3                   8                   0                   0                   0                   0                   0                   0

***** Reaction Force Data ******
              NodeNo           Magnitude             X Force             Y Force             Z Force----------------------------------------------------------------------------------------------------
                   1         58.62432579        -56.99400317        -9.497190703         9.914562268
                   2      0.002842547647    -0.0003782325681     -0.002809297003     -0.000211819723
                   3     1.446613359e-13     -6.75015599e-14    -1.278976924e-13    -3.552713679e-15
                   4     1.786748338e-14    -1.110223025e-15                   0     1.783295733e-14
                   5         58.62432579        -56.99400317        -9.497190703        -9.914562268
                   6      0.002842547647    -0.0003782325681     -0.002809297003      0.000211819723
                   7     2.016577025e-13    -3.552713679e-14    -1.776356839e-13     8.859579737e-14
                   8     2.249039002e-13     -2.70894418e-14    -2.007283229e-13     9.775513732e-14
                   9         58.62432579         56.99400317        -9.497190703        -9.914562268
                  10      0.002842547647     0.0003782325681     -0.002809297003      0.000211819723
                  11     1.562867541e-13    -2.842170943e-14      1.33226763e-13     -7.66053887e-14
                  12     2.009816265e-13      6.10067552e-14      1.88293825e-13    -3.488875855e-14
                  13         58.62432579         56.99400317        -9.497190703         9.914562268
                  14      0.002842547647     0.0003782325681     -0.002809297003     -0.000211819723
                  15     2.953860973e-14     7.105427358e-15     2.842170943e-14    -3.774758284e-15
                  16     1.665806455e-13     4.996003611e-14     1.350031198e-13    -8.382877725e-14

*Increment 96

***** Displacement Data ******
              NodeNo           Magnitude      X Displacement      Y Displacement      Z Displacement
----------------------------------------------------------------------------------------------------
                   1                   0                   0                   0                   0
                   2      0.005532097551      0.003530193664      0.004229674017    -0.0005016908569
                   3       0.01486505012      0.005552779935       0.01378807619    -0.0001590753798
                   4       0.02678214568      0.006230865724       0.02604715042    -7.479630816e-05
                   5                   0                   0                   0                   0
                   6      0.005532097551      0.003530193664      0.004229674017     0.0005016908569
                   7       0.01486505012      0.005552779935       0.01378807619     0.0001590753798
                   8       0.02678214568      0.006230865724       0.02604715042     7.479630816e-05
                   9                   0                   0                   0                   0
                  10      0.005532097551     -0.003530193664      0.004229674017     0.0005016908569
                  11       0.01486505012     -0.005552779935       0.01378807619     0.0001590753798
                  12       0.02678214568     -0.006230865724       0.02604715042     7.479630816e-05
                  13                   0                   0                   0                   0
                  14      0.005532097551     -0.003530193664      0.004229674017    -0.0005016908569
                  15       0.01486505012     -0.005552779935       0.01378807619    -0.0001590753798
                  16       0.02678214568     -0.006230865724       0.02604715042    -7.479630816e-05

***** Stress Data ******
          Element No         Integral No           Stress XX           Stress YY           Stress ZZ           Stress XY           Stress XZ           Stress YZ               Mises            YieldFlg
                   1                   1         177.1451862        -96.76787334        -80.37731289         184.9013132        -11.19496098         8.195280223         417.0735933                True
                   1                   2         194.8926478        -134.3483022        -60.54434552        -108.1239849        -13.50706153         36.90197837          359.516788               False
                   1                   3        -194.8926478         134.3483022         60.54434552        -108.1239849         13.50706153         36.90197837          359.516788               False
                   1                   4        -177.1451862         96.76787334         80.37731289         184.9013132         11.19496098         8.195280223         417.0735933                True
                   1                   5         177.1451862        -96.76787334        -80.37731289         184.9013132         11.19496098        -8.195280223         417.0735933                True
                   1                   6         194.8926478        -134.3483022        -60.54434552        -108.1239849         13.50706153        -36.90197837          359.516788               False
                   1                   7        -194.8926478         134.3483022         60.54434552        -108.1239849        -13.50706153        -36.90197837          359.516788               False
                   1                   8        -177.1451862         96.76787334         80.37731289         184.9013132        -11.19496098        -8.195280223         417.0735933                True
                   2                   1          99.0652241        -89.56981665        -9.495407446         132.7175204         9.224262846          40.0372046         291.1979827               False
                   2                   2         111.3642412        -77.27079952         -34.0934417        -55.91752037         9.224262846         21.58867891         200.8394425               False
                   2                   3        -111.3642412         77.27079952          34.0934417        -55.91752037        -9.224262846         21.58867891         200.8394425               False
                   2                   4         -99.0652241         89.56981665         9.495407446         132.7175204        -9.224262846          40.0372046         291.1979827               False
                   2                   5          99.0652241        -89.56981665        -9.495407446         132.7175204        -9.224262846         -40.0372046         291.1979827               False
                   2                   6         111.3642412        -77.27079952         -34.0934417        -55.91752037        -9.224262846        -21.58867891         200.8394425               False
                   2                   7        -111.3642412         77.27079952          34.0934417        -55.91752037         9.224262846        -21.58867891         200.8394425               False
                   2                   8         -99.0652241         89.56981665         9.495407446         132.7175204         9.224262846         -40.0372046         291.1979827               False
                   3                   1         33.37746026        -29.86371868         -3.51374158         70.02058947         2.269051928         13.17498855         135.1747018               False
                   3                   2         36.40286283        -26.83831611        -9.564546721         6.779410532         2.269051928         8.636884693         59.85424483               False
                   3                   3        -36.40286283         26.83831611         9.564546721         6.779410532        -2.269051928         8.636884693         59.85424483               False
                   3                   4        -33.37746026         29.86371868          3.51374158         70.02058947        -2.269051928         13.17498855         135.1747018               False
                   3                   5         33.37746026        -29.86371868         -3.51374158         70.02058947        -2.269051928        -13.17498855         135.1747018               False
                   3                   6         36.40286283        -26.83831611        -9.564546721         6.779410532        -2.269051928        -8.636884693         59.85424483               False
                   3                   7        -36.40286283         26.83831611         9.564546721         6.779410532         2.269051928        -8.636884693         59.85424483               False
                   3                   8        -33.37746026         29.86371868          3.51374158         70.02058947         2.269051928        -13.17498855         135.1747018               False

***** Strain Data ******
          Element No         Integral No           Strain XX           Strain YY           Strain ZZ           Strain XY           Strain XZ           Strain YZ
                   1                   1      0.001317965153    -0.0007201931092    -0.0005977720436      0.002737638616    -0.0001672302856     0.0001224210656
                   1                   2      0.001206478296    -0.0008316799663    -0.0003747983294     -0.001338677908    -0.0001672302856     0.0004568816369
                   1                   3     -0.001206478296     0.0008316799663     0.0003747983294     -0.001338677908     0.0001672302856     0.0004568816369
                   1                   4     -0.001317965153     0.0007201931092     0.0005977720436      0.002737638616     0.0001672302856     0.0001224210656
                   1                   5      0.001317965153    -0.0007201931092    -0.0005977720436      0.002737638616     0.0001672302856    -0.0001224210656
                   1                   6      0.001206478296    -0.0008316799663    -0.0003747983294     -0.001338677908     0.0001672302856    -0.0004568816369
                   1                   7     -0.001206478296     0.0008316799663     0.0003747983294     -0.001338677908    -0.0001672302856    -0.0004568816369
                   1                   8     -0.001317965153     0.0007201931092     0.0005977720436      0.002737638616    -0.0001672302856    -0.0001224210656
                   2                   1     0.0006132609111    -0.0005544798174    -5.878109371e-05        0.0016431693      0.000114205159     0.0004956987236
                   2                   2     0.0006893976838    -0.0004783430447    -0.0002110546391     -0.000692312157      0.000114205159     0.0002672884056
                   2                   3    -0.0006893976838     0.0004783430447     0.0002110546391     -0.000692312157     -0.000114205159     0.0002672884056
                   2                   4    -0.0006132609111     0.0005544798174     5.878109371e-05        0.0016431693     -0.000114205159     0.0004956987236
                   2                   5     0.0006132609111    -0.0005544798174    -5.878109371e-05        0.0016431693     -0.000114205159    -0.0004956987236
                   2                   6     0.0006893976838    -0.0004783430447    -0.0002110546391     -0.000692312157     -0.000114205159    -0.0002672884056
                   2                   7    -0.0006893976838     0.0004783430447     0.0002110546391     -0.000692312157      0.000114205159    -0.0002672884056
                   2                   8    -0.0006132609111     0.0005544798174     5.878109371e-05        0.0016431693      0.000114205159    -0.0004956987236
                   3                   1      0.000206622373    -0.0001848706394    -2.175173359e-05     0.0008669215839     2.809302387e-05     0.0001631189058
                   3                   2     0.0002253510556    -0.0001661419569    -5.920909875e-05     8.393555897e-05     2.809302387e-05     0.0001069328581
                   3                   3    -0.0002253510556     0.0001661419569     5.920909875e-05     8.393555897e-05    -2.809302387e-05     0.0001069328581
                   3                   4     -0.000206622373     0.0001848706394     2.175173359e-05     0.0008669215839    -2.809302387e-05     0.0001631189058
                   3                   5      0.000206622373    -0.0001848706394    -2.175173359e-05     0.0008669215839    -2.809302387e-05    -0.0001631189058
                   3                   6     0.0002253510556    -0.0001661419569    -5.920909875e-05     8.393555897e-05    -2.809302387e-05    -0.0001069328581
                   3                   7    -0.0002253510556     0.0001661419569     5.920909875e-05     8.393555897e-05     2.809302387e-05    -0.0001069328581
                   3                   8     -0.000206622373     0.0001848706394     2.175173359e-05     0.0008669215839     2.809302387e-05    -0.0001631189058

***** Plastic Strain Data ******
          Element No         Integral No          PStrain XX          PStrain YY          PStrain ZZ          PStrain XY          PStrain XZ          PStrain YZ
                   1                   1     0.0002213520951    -0.0001211538933    -0.0001001982018     0.0004483842623    -2.862600688e-05     2.095569145e-05
                   1                   2                   0                   0                   0                   0                   0                   0
                   1                   3                   0                   0                   0                   0                   0                   0
                   1                   4    -0.0002213520951     0.0001211538933     0.0001001982018     0.0004483842623     2.862600688e-05     2.095569145e-05
                   1                   5     0.0002213520951    -0.0001211538933    -0.0001001982018     0.0004483842623     2.862600688e-05    -2.095569145e-05
                   1                   6                   0                   0                   0                   0                   0                   0
                   1                   7                   0                   0                   0                   0                   0                   0
                   1                   8    -0.0002213520951     0.0001211538933     0.0001001982018     0.0004483842623    -2.862600688e-05    -2.095569145e-05
                   2                   1                   0                   0                   0                   0                   0                   0
                   2                   2                   0                   0                   0                   0                   0                   0
                   2                   3                   0                   0                   0                   0                   0                   0
                   2                   4                   0                   0                   0                   0                   0                   0
                   2                   5                   0                   0                   0                   0                   0                   0
                   2                   6                   0                   0                   0                   0                   0                   0
                   2                   7                   0                   0                   0                   0                   0                   0
                   2                   8                   0                   0                   0                   0                   0                   0
                   3                   1                   0                   0                   0                   0                   0                   0
                   3                   2                   0                   0                   0                   0                   0                   0
                   3                   3                   0                   0                   0                   0                   0                   0
                   3                   4                   0                   0                   0                   0                   0                   0
                   3                   5                   0                   0                   0                   0                   0                   0
                   3                   6                   0                   0                   0                   0                   0                   0
                   3                   7                   0                   0                   0                   0                   0                   0
                   3                   8                   0                   0                   0                   0                   0                   0

***** Reaction Force Data ******
              NodeNo           Magnitude             X Force             Y Force             Z Force----------------------------------------------------------------------------------------------------
                   1         59.23273272        -57.59396332        -9.597166031          9.96726738
                   2      0.002865760744    -0.0003687419942     -0.002833968571    -0.0002126878518
                   3     1.195722052e-13     6.039613254e-14     5.329070518e-14     8.837375276e-14
                   4     1.368516014e-13    -7.549516567e-14     9.769962617e-14     5.902223155e-14
                   5         59.23273272        -57.59396332        -9.597166031         -9.96726738
                   6      0.002865760744    -0.0003687419942     -0.002833968571     0.0002126878519
                   7     8.669668972e-14     7.105427358e-15     8.526512829e-14    -1.398881011e-14
                   8     6.676604724e-14     3.419486916e-14     3.907985047e-14     4.196643033e-14
                   9         59.23273272         57.59396332        -9.597166031         -9.96726738
                  10      0.002865760744     0.0003687419942     -0.002833968571     0.0002126878518
                  11     3.040633126e-14     1.421085472e-14     3.552713679e-15    -2.664535259e-14
                  12      6.48581468e-14     3.086420008e-14     3.197442311e-14     -4.72399897e-14
                  13         59.23273272         57.59396332        -9.597166031          9.96726738
                  14      0.002865760744     0.0003687419942     -0.002833968571    -0.0002126878518
                  15     5.091410648e-14    -3.197442311e-14    -2.309263891e-14    -3.219646771e-14
                  16     2.353655973e-13     3.552713679e-15    -2.255973186e-13    -6.700889843e-14

*Increment 97

***** Displacement Data ******
              NodeNo           Magnitude      X Displacement      Y Displacement      Z Displacement
----------------------------------------------------------------------------------------------------
                   1                   0                   0                   0                   0
                   2       0.00566820058      0.003607687576       0.00434198724    -0.0005101323108
                   3       0.01517495688      0.005652107812       0.01408216358    -0.0001601956578
                   4       0.02729768422      0.006337152261        0.0265518046    -7.574562765e-05
                   5                   0                   0                   0                   0
                   6       0.00566820058      0.003607687576       0.00434198724     0.0005101323108
                   7       0.01517495688      0.005652107812       0.01408216358     0.0001601956578
                   8       0.02729768422      0.006337152261        0.0265518046     7.574562765e-05
                   9                   0                   0                   0                   0
                  10       0.00566820058     -0.003607687576       0.00434198724     0.0005101323108
                  11       0.01517495688     -0.005652107812       0.01408216358     0.0001601956578
                  12       0.02729768422     -0.006337152261        0.0265518046     7.574562765e-05
                  13                   0                   0                   0                   0
                  14       0.00566820058     -0.003607687576       0.00434198724    -0.0005101323108
                  15       0.01517495688     -0.005652107812       0.01408216358    -0.0001601956578
                  16       0.02729768422     -0.006337152261        0.0265518046    -7.574562765e-05

***** Stress Data ******
          Element No         Integral No           Stress XX           Stress YY           Stress ZZ           Stress XY           Stress XZ           Stress YZ               Mises            YieldFlg
                   1                   1         177.2662905        -96.78391599        -80.48237447         186.5024999        -11.13415992          8.15077076         419.3120274                True
                   1                   2         199.2969814         -137.171382         -62.1255994        -108.9253627        -13.73433145         37.52289132         366.0277299               False
                   1                   3        -199.2969814          137.171382          62.1255994        -108.9253627         13.73433145         37.52289132         366.0277299               False
                   1                   4        -177.2662905         96.78391599         80.48237447         186.5024999         11.13415992          8.15077076         419.3120274                True
                   1                   5         177.2662905        -96.78391599        -80.48237447         186.5024999         11.13415992         -8.15077076         419.3120274                True
                   1                   6         199.2969814         -137.171382         -62.1255994        -108.9253627         13.73433145        -37.52289132         366.0277299               False
                   1                   7        -199.2969814          137.171382          62.1255994        -108.9253627        -13.73433145        -37.52289132         366.0277299               False
                   1                   8        -177.2662905         96.78391599         80.48237447         186.5024999        -11.13415992         -8.15077076         419.3120274                True
                   2                   1         99.99411493        -90.67725465        -9.316860284         134.1356848         9.421371426         40.68019718         294.3977836               False
                   2                   2         112.5559435        -78.11542608        -34.44051742        -56.53568479         9.421371426         21.83745433          203.030232               False
                   2                   3        -112.5559435         78.11542608         34.44051742        -56.53568479        -9.421371426         21.83745433          203.030232               False
                   2                   4        -99.99411493         90.67725465         9.316860284         134.1356848        -9.421371426         40.68019718         294.3977836               False
                   2                   5         99.99411493        -90.67725465        -9.316860284         134.1356848        -9.421371426        -40.68019718         294.3977836               False
                   2                   6         112.5559435        -78.11542608        -34.44051742        -56.53568479        -9.421371426        -21.83745433          203.030232               False
                   2                   7        -112.5559435         78.11542608         34.44051742        -56.53568479         9.421371426        -21.83745433          203.030232               False
                   2                   8        -99.99411493         90.67725465         9.316860284         134.1356848         9.421371426        -40.68019718         294.3977836               False
                   3                   1         33.74271488        -30.14745848        -3.595256403         70.74508668         2.273654659         13.27610104         136.5628934               False
                   3                   2         36.77425443        -27.11591893        -9.658335493          6.85491332         2.273654659          8.72879172         60.46823034               False
                   3                   3        -36.77425443         27.11591893         9.658335493          6.85491332        -2.273654659          8.72879172         60.46823034               False
                   3                   4        -33.74271488         30.14745848         3.595256403         70.74508668        -2.273654659         13.27610104         136.5628934               False
                   3                   5         33.74271488        -30.14745848        -3.595256403         70.74508668        -2.273654659        -13.27610104         136.5628934               False
                   3                   6         36.77425443        -27.11591893        -9.658335493          6.85491332        -2.273654659         -8.72879172         60.46823034               False
                   3                   7        -36.77425443         27.11591893         9.658335493          6.85491332         2.273654659         -8.72879172         60.46823034               False
                   3                   8        -33.74271488         30.14745848         3.595256403         70.74508668         2.273654659        -13.27610104         136.5628934               False

***** Strain Data ******
          Element No         Integral No           Strain XX           Strain YY           Strain ZZ           Strain XY           Strain XZ           Strain YZ
                   1                   1      0.001347105954    -0.0007357934388    -0.0006113125154      0.002817199058    -0.0001700441036     0.0001244809234
                   1                   2      0.001233743218    -0.0008491561745    -0.0003845870439     -0.001348599728    -0.0001700441036     0.0004645691306
                   1                   3     -0.001233743218     0.0008491561745     0.0003845870439     -0.001348599728     0.0001700441036     0.0004645691306
                   1                   4     -0.001347105954     0.0007357934388     0.0006113125154      0.002817199058     0.0001700441036     0.0001244809234
                   1                   5      0.001347105954    -0.0007357934388    -0.0006113125154      0.002817199058     0.0001700441036    -0.0001244809234
                   1                   6      0.001233743218    -0.0008491561745    -0.0003845870439     -0.001348599728     0.0001700441036    -0.0004645691306
                   1                   7     -0.001233743218     0.0008491561745     0.0003845870439     -0.001348599728    -0.0001700441036    -0.0004645691306
                   1                   8     -0.001347105954     0.0007357934388     0.0006113125154      0.002817199058    -0.0001700441036    -0.0001244809234
                   2                   1     0.0006190111877    -0.0005613353859    -5.767580176e-05      0.001660727526      0.000116645551     0.0005036595841
                   2                   2     0.0006967748883    -0.0004835716852    -0.0002132032031    -0.0006999656212      0.000116645551     0.0002703684822
                   2                   3    -0.0006967748883     0.0004835716852     0.0002132032031    -0.0006999656212     -0.000116645551     0.0002703684822
                   2                   4    -0.0006190111877     0.0005613353859     5.767580176e-05      0.001660727526     -0.000116645551     0.0005036595841
                   2                   5     0.0006190111877    -0.0005613353859    -5.767580176e-05      0.001660727526     -0.000116645551    -0.0005036595841
                   2                   6     0.0006967748883    -0.0004835716852    -0.0002132032031    -0.0006999656212     -0.000116645551    -0.0002703684822
                   2                   7    -0.0006967748883     0.0004835716852     0.0002132032031    -0.0006999656212      0.000116645551    -0.0002703684822
                   2                   8    -0.0006190111877     0.0005613353859     5.767580176e-05      0.001660727526      0.000116645551    -0.0005036595841
                   3                   1     0.0002088834731    -0.0001866271239    -2.225634916e-05     0.0008758915494     2.815001006e-05     0.0001643707748
                   3                   2     0.0002276501464    -0.0001678604505    -5.978969591e-05     8.487035539e-05     2.815001006e-05     0.0001080707546
                   3                   3    -0.0002276501464     0.0001678604505     5.978969591e-05     8.487035539e-05    -2.815001006e-05     0.0001080707546
                   3                   4    -0.0002088834731     0.0001866271239     2.225634916e-05     0.0008758915494    -2.815001006e-05     0.0001643707748
                   3                   5     0.0002088834731    -0.0001866271239    -2.225634916e-05     0.0008758915494    -2.815001006e-05    -0.0001643707748
                   3                   6     0.0002276501464    -0.0001678604505    -5.978969591e-05     8.487035539e-05    -2.815001006e-05    -0.0001080707546
                   3                   7    -0.0002276501464     0.0001678604505     5.978969591e-05     8.487035539e-05     2.815001006e-05    -0.0001080707546
                   3                   8    -0.0002088834731     0.0001866271239     2.225634916e-05     0.0008758915494     2.815001006e-05    -0.0001643707748

***** Plastic Strain Data ******
          Element No         Integral No          PStrain XX          PStrain YY          PStrain ZZ          PStrain XY          PStrain XZ          PStrain YZ
                   1                   1     0.0002497432037    -0.0001366549112    -0.0001130882925     0.0005081204869    -3.219259986e-05     2.356661872e-05
                   1                   2                   0                   0                   0                   0                   0                   0
                   1                   3                   0                   0                   0                   0                   0                   0
                   1                   4    -0.0002497432037     0.0001366549112     0.0001130882925     0.0005081204869     3.219259986e-05     2.356661872e-05
                   1                   5     0.0002497432037    -0.0001366549112    -0.0001130882925     0.0005081204869     3.219259986e-05    -2.356661872e-05
                   1                   6                   0                   0                   0                   0                   0                   0
                   1                   7                   0                   0                   0                   0                   0                   0
                   1                   8    -0.0002497432037     0.0001366549112     0.0001130882925     0.0005081204869    -3.219259986e-05    -2.356661872e-05
                   2                   1                   0                   0                   0                   0                   0                   0
                   2                   2                   0                   0                   0                   0                   0                   0
                   2                   3                   0                   0                   0                   0                   0                   0
                   2                   4                   0                   0                   0                   0                   0                   0
                   2                   5                   0                   0                   0                   0                   0                   0
                   2                   6                   0                   0                   0                   0                   0                   0
                   2                   7                   0                   0                   0                   0                   0                   0
                   2                   8                   0                   0                   0                   0                   0                   0
                   3                   1                   0                   0                   0                   0                   0                   0
                   3                   2                   0                   0                   0                   0                   0                   0
                   3                   3                   0                   0                   0                   0                   0                   0
                   3                   4                   0                   0                   0                   0                   0                   0
                   3                   5                   0                   0                   0                   0                   0                   0
                   3                   6                   0                   0                   0                   0                   0                   0
                   3                   7                   0                   0                   0                   0                   0                   0
                   3                   8                   0                   0                   0                   0                   0                   0

***** Reaction Force Data ******
              NodeNo           Magnitude             X Force             Y Force             Z Force----------------------------------------------------------------------------------------------------
                   1         59.84127622        -58.19392496        -9.697142161          10.0205225
                   2      0.002888246762    -0.0003593602292     -0.002857839055    -0.0002135076681
                   3     1.419926203e-13     3.907985047e-14     -1.33226763e-13    -2.975397706e-14
                   4     5.941376436e-14    -4.607425552e-14    -1.776356839e-15    -3.747002708e-14
                   5         59.84127622        -58.19392496        -9.697142161         -10.0205225
                   6      0.002888246762    -0.0003593602292     -0.002857839055     0.0002135076682
                   7     1.224986096e-13    -7.105427358e-15    -1.207922651e-13    -1.909583602e-14
                   8     8.242927464e-14    -7.727152251e-14     2.309263891e-14    -1.704192343e-14
                   9         59.84127622         58.19392496        -9.697142161         -10.0205225
                  10      0.002888246762     0.0003593602292     -0.002857839055     0.0002135076682
                  11     6.835548585e-14    -7.105427358e-15     4.796163466e-14     4.818367927e-14
                  12     6.121463729e-14     5.584421814e-14    -2.486899575e-14     3.191891196e-15
                  13         59.84127622         58.19392496        -9.697142161          10.0205225
                  14      0.002888246762     0.0003593602292     -0.002857839055    -0.0002135076682
                  15     1.102808622e-13     3.907985047e-14     1.030286967e-13    -4.440892099e-15
                  16     1.547925206e-13     8.437694987e-14     1.172395514e-13     5.564299022e-14

*Increment 98

***** Displacement Data ******
              NodeNo           Magnitude      X Displacement      Y Displacement      Z Displacement
----------------------------------------------------------------------------------------------------
                   1                   0                   0                   0                   0
                   2      0.005804621103      0.003685286377      0.004454588916    -0.0005185827404
                   3       0.01548538811      0.005751542713       0.01437675134    -0.0001613144376
                   4       0.02781394915       0.00644354553       0.02705717292    -7.669542221e-05
                   5                   0                   0                   0                   0
                   6      0.005804621103      0.003685286377      0.004454588916     0.0005185827404
                   7       0.01548538811      0.005751542713       0.01437675134     0.0001613144376
                   8       0.02781394915       0.00644354553       0.02705717292     7.669542221e-05
                   9                   0                   0                   0                   0
                  10      0.005804621103     -0.003685286377      0.004454588916     0.0005185827404
                  11       0.01548538811     -0.005751542713       0.01437675134     0.0001613144376
                  12       0.02781394915      -0.00644354553       0.02705717292     7.669542221e-05
                  13                   0                   0                   0                   0
                  14      0.005804621103     -0.003685286377      0.004454588916    -0.0005185827404
                  15       0.01548538811     -0.005751542713       0.01437675134    -0.0001613144376
                  16       0.02781394915      -0.00644354553       0.02705717292    -7.669542221e-05

***** Stress Data ******
          Element No         Integral No           Stress XX           Stress YY           Stress ZZ           Stress XY           Stress XZ           Stress YZ               Mises            YieldFlg
                   1                   1          177.401186        -96.80863408        -80.59255193         188.0937575        -11.07579008         8.108041076         421.5571171                True
                   1                   2         203.7073966        -139.9981628        -63.70923381        -109.7168053        -13.96184301         38.14446447         372.5529694               False
                   1                   3        -203.7073966         139.9981628         63.70923381        -109.7168053         13.96184301         38.14446447         372.5529694               False
                   1                   4         -177.401186         96.80863408         80.59255193         188.0937575         11.07579008         8.108041076         421.5571171                True
                   1                   5          177.401186        -96.80863408        -80.59255193         188.0937575         11.07579008        -8.108041076         421.5571171                True
                   1                   6         203.7073966        -139.9981628        -63.70923381        -109.7168053         13.96184301        -38.14446447         372.5529694               False
                   1                   7        -203.7073966         139.9981628         63.70923381        -109.7168053        -13.96184301        -38.14446447         372.5529694               False
                   1                   8         -177.401186         96.80863408         80.59255193         188.0937575        -11.07579008        -8.108041076         421.5571171                True
                   2                   1         100.9227181        -91.78517951        -9.137538634         135.5539488         9.618761998         41.32382044         297.5991743               False
                   2                   2         113.7477341        -78.96016351        -34.78757063        -57.15394883         9.618761998         22.08629644          205.221444               False
                   2                   3        -113.7477341         78.96016351         34.78757063        -57.15394883        -9.618761998         22.08629644          205.221444               False
                   2                   4        -100.9227181         91.78517951         9.137538634         135.5539488        -9.618761998         41.32382044         297.5991743               False
                   2                   5         100.9227181        -91.78517951        -9.137538634         135.5539488        -9.618761998        -41.32382044         297.5991743               False
                   2                   6         113.7477341        -78.96016351        -34.78757063        -57.15394883        -9.618761998        -22.08629644          205.221444               False
                   2                   7        -113.7477341         78.96016351         34.78757063        -57.15394883         9.618761998        -22.08629644          205.221444               False
                   2                   8        -100.9227181         91.78517951         9.137538634         135.5539488         9.618761998        -41.32382044         297.5991743               False
                   3                   1         34.10801856        -30.43112196        -3.676896595         71.46957026         2.278204261         13.37711268         137.9510965               False
                   3                   2         37.14562424        -27.39351628        -9.752107959         6.930429741         2.278204261         8.820704161         61.08220931               False
                   3                   3        -37.14562424         27.39351628         9.752107959         6.930429741        -2.278204261         8.820704161         61.08220931               False
                   3                   4        -34.10801856         30.43112196         3.676896595         71.46957026        -2.278204261         13.37711268         137.9510965               False
                   3                   5         34.10801856        -30.43112196        -3.676896595         71.46957026        -2.278204261        -13.37711268         137.9510965               False
                   3                   6         37.14562424        -27.39351628        -9.752107959         6.930429741        -2.278204261        -8.820704161         61.08220931               False
                   3                   7        -37.14562424         27.39351628         9.752107959         6.930429741         2.278204261        -8.820704161         61.08220931               False
                   3                   8        -34.10801856         30.43112196         3.676896595         71.46957026         2.278204261        -13.37711268         137.9510965               False

***** Strain Data ******
          Element No         Integral No           Strain XX           Strain YY           Strain ZZ           Strain XY           Strain XZ           Strain YZ
                   1                   1      0.001376286397    -0.0007514146843     -0.000624871713      0.002897003621    -0.0001728609135     0.0001265429713
                   1                   2      0.001261045788    -0.0008666552933     -0.000394390495     -0.001358398542    -0.0001728609135     0.0004722647983
                   1                   3     -0.001261045788     0.0008666552933      0.000394390495     -0.001358398542     0.0001728609135     0.0004722647983
                   1                   4     -0.001376286397     0.0007514146843      0.000624871713      0.002897003621     0.0001728609135     0.0001265429713
                   1                   5      0.001376286397    -0.0007514146843     -0.000624871713      0.002897003621     0.0001728609135    -0.0001265429713
                   1                   6      0.001261045788    -0.0008666552933     -0.000394390495     -0.001358398542     0.0001728609135    -0.0004722647983
                   1                   7     -0.001261045788     0.0008666552933      0.000394390495     -0.001358398542    -0.0001728609135    -0.0004722647983
                   1                   8     -0.001376286397     0.0007514146843      0.000624871713      0.002897003621    -0.0001728609135    -0.0001265429713
                   2                   1     0.0006247596837    -0.0005681939684    -5.656571536e-05      0.001678286985     0.0001190894343      0.000511628253
                   2                   2     0.0007041526399    -0.0004888010122    -0.0002153516277    -0.0007076203188     0.0001190894343     0.0002734493845
                   2                   3    -0.0007041526399     0.0004888010122     0.0002153516277    -0.0007076203188    -0.0001190894343     0.0002734493845
                   2                   4    -0.0006247596837     0.0005681939684     5.656571536e-05      0.001678286985    -0.0001190894343      0.000511628253
                   2                   5     0.0006247596837    -0.0005681939684    -5.656571536e-05      0.001678286985    -0.0001190894343     -0.000511628253
                   2                   6     0.0007041526399    -0.0004888010122    -0.0002153516277    -0.0007076203188    -0.0001190894343    -0.0002734493845
                   2                   7    -0.0007041526399     0.0004888010122     0.0002153516277    -0.0007076203188     0.0001190894343    -0.0002734493845
                   2                   8    -0.0006247596837     0.0005681939684     5.656571536e-05      0.001678286985     0.0001190894343     -0.000511628253
                   3                   1     0.0002111448768     -0.000188383136    -2.276174083e-05     0.0008848613461     2.820633847e-05     0.0001656213951
                   3                   2     0.0002299491024    -0.0001695789103    -6.037019212e-05      8.58053206e-05     2.820633847e-05     0.0001092087182
                   3                   3    -0.0002299491024     0.0001695789103     6.037019212e-05      8.58053206e-05    -2.820633847e-05     0.0001092087182
                   3                   4    -0.0002111448768      0.000188383136     2.276174083e-05     0.0008848613461    -2.820633847e-05     0.0001656213951
                   3                   5     0.0002111448768     -0.000188383136    -2.276174083e-05     0.0008848613461    -2.820633847e-05    -0.0001656213951
                   3                   6     0.0002299491024    -0.0001695789103    -6.037019212e-05      8.58053206e-05    -2.820633847e-05    -0.0001092087182
                   3                   7    -0.0002299491024     0.0001695789103     6.037019212e-05      8.58053206e-05     2.820633847e-05    -0.0001092087182
                   3                   8    -0.0002111448768      0.000188383136     2.276174083e-05     0.0008848613461     2.820633847e-05    -0.0001656213951

***** Plastic Strain Data ******
          Element No         Integral No          PStrain XX          PStrain YY          PStrain ZZ          PStrain XY          PStrain XZ          PStrain YZ
                   1                   1     0.0002780885792      -0.00015212314    -0.0001259654392     0.0005682237658    -3.573208385e-05     2.615770084e-05
                   1                   2                   0                   0                   0                   0                   0                   0
                   1                   3                   0                   0                   0                   0                   0                   0
                   1                   4    -0.0002780885792       0.00015212314     0.0001259654392     0.0005682237658     3.573208385e-05     2.615770084e-05
                   1                   5     0.0002780885792      -0.00015212314    -0.0001259654392     0.0005682237658     3.573208385e-05    -2.615770084e-05
                   1                   6                   0                   0                   0                   0                   0                   0
                   1                   7                   0                   0                   0                   0                   0                   0
                   1                   8    -0.0002780885792       0.00015212314     0.0001259654392     0.0005682237658    -3.573208385e-05    -2.615770084e-05
                   2                   1                   0                   0                   0                   0                   0                   0
                   2                   2                   0                   0                   0                   0                   0                   0
                   2                   3                   0                   0                   0                   0                   0                   0
                   2                   4                   0                   0                   0                   0                   0                   0
                   2                   5                   0                   0                   0                   0                   0                   0
                   2                   6                   0                   0                   0                   0                   0                   0
                   2                   7                   0                   0                   0                   0                   0                   0
                   2                   8                   0                   0                   0                   0                   0                   0
                   3                   1                   0                   0                   0                   0                   0                   0
                   3                   2                   0                   0                   0                   0                   0                   0
                   3                   3                   0                   0                   0                   0                   0                   0
                   3                   4                   0                   0                   0                   0                   0                   0
                   3                   5                   0                   0                   0                   0                   0                   0
                   3                   6                   0                   0                   0                   0                   0                   0
                   3                   7                   0                   0                   0                   0                   0                   0
                   3                   8                   0                   0                   0                   0                   0                   0

***** Reaction Force Data ******
              NodeNo           Magnitude             X Force             Y Force             Z Force----------------------------------------------------------------------------------------------------
                   1         60.44995243        -58.79388795        -9.797119024         10.07432123
                   2      0.002910070948    -0.0003501002325     -0.002880976358    -0.0002142848045
                   3     2.304994125e-13    -1.207922651e-13    -1.705302566e-13    -9.725553696e-14
                   4     2.663665442e-13     8.215650382e-14    -2.202682481e-13    -1.252331572e-13
                   5         60.44995243        -58.79388795        -9.797119024        -10.07432123
                   6      0.002910070948    -0.0003501002325     -0.002880976358     0.0002142848045
                   7      1.41276218e-13    -7.105427358e-14    -1.119104809e-13     4.884981308e-14
                   8      2.19193258e-13     8.260059303e-14    -1.900701818e-13     7.138734048e-14
                   9         60.44995243         58.79388795        -9.797119024        -10.07432123
                  10      0.002910070948     0.0003501002325     -0.002880976358     0.0002142848046
                  11     1.686323157e-13    -4.618527782e-14     1.421085472e-13    -7.815970093e-14
                  12     2.051263699e-13     6.922240559e-14     1.811883976e-13    -6.675215936e-14
                  13         60.44995243         58.79388795        -9.797119024         10.07432123
                  14      0.002910070948     0.0003501002325     -0.002880976358    -0.0002142848045
                  15     2.155846152e-13    -7.460698725e-14     1.598721155e-13     1.239008895e-13
                  16     2.506435227e-13     3.463895837e-14     2.255973186e-13     1.035768693e-13

*Increment 99

***** Displacement Data ******
              NodeNo           Magnitude      X Displacement      Y Displacement      Z Displacement
----------------------------------------------------------------------------------------------------
                   1                   0                   0                   0                   0
                   2      0.005941345735      0.003762984778      0.004567467757    -0.0005270417345
                   3        0.0157963205      0.005851079254        0.0146718175    -0.0001624317878
                   4       0.02833090709       0.00655004016       0.02756322263    -7.764567008e-05
                   5                   0                   0                   0                   0
                   6      0.005941345735      0.003762984778      0.004567467757     0.0005270417345
                   7        0.0157963205      0.005851079254        0.0146718175     0.0001624317878
                   8       0.02833090709       0.00655004016       0.02756322263     7.764567008e-05
                   9                   0                   0                   0                   0
                  10      0.005941345735     -0.003762984778      0.004567467757     0.0005270417345
                  11        0.0157963205     -0.005851079254        0.0146718175     0.0001624317878
                  12       0.02833090709      -0.00655004016       0.02756322263     7.764567008e-05
                  13                   0                   0                   0                   0
                  14      0.005941345735     -0.003762984778      0.004567467757    -0.0005270417345
                  15        0.0157963205     -0.005851079254        0.0146718175    -0.0001624317878
                  16       0.02833090709      -0.00655004016       0.02756322263    -7.764567008e-05

***** Stress Data ******
          Element No         Integral No           Stress XX           Stress YY           Stress ZZ           Stress XY           Stress XZ           Stress YZ               Mises            YieldFlg
                   1                   1         177.5497055        -96.84190796        -80.70779757         189.6753236        -11.01980233         8.067055195         423.8085982                True
                   1                   2         208.1235845        -142.8284599        -65.29512466        -110.4985508        -14.18958516          38.7666676         379.0918869               False
                   1                   3        -208.1235845         142.8284599         65.29512466        -110.4985508         14.18958516          38.7666676         379.0918869               False
                   1                   4        -177.5497055         96.84190796         80.70779757         189.6753236         11.01980233         8.067055195         423.8085982                True
                   1                   5         177.5497055        -96.84190796        -80.70779757         189.6753236         11.01980233        -8.067055195         423.8085982                True
                   1                   6         208.1235845        -142.8284599        -65.29512466        -110.4985508         14.18958516         -38.7666676         379.0918869               False
                   1                   7        -208.1235845         142.8284599         65.29512466        -110.4985508        -14.18958516         -38.7666676         379.0918869               False
                   1                   8        -177.5497055         96.84190796         80.70779757         189.6753236        -11.01980233        -8.067055195         423.8085982                True
                   2                   1         101.8510469        -92.89356894        -8.957477976         136.9723079         9.816421644         41.96804548         300.8021066               False
                   2                   2         114.9396091        -79.80500675        -35.13460236        -57.77230793         9.816421644         22.33520219         207.4130626               False
                   2                   3        -114.9396091         79.80500675         35.13460236        -57.77230793        -9.816421644         22.33520219         207.4130626               False
                   2                   4        -101.8510469         92.89356894         8.957477976         136.9723079        -9.816421644         41.96804548         300.8021066               False
                   2                   5         101.8510469        -92.89356894        -8.957477976         136.9723079        -9.816421644        -41.96804548         300.8021066               False
                   2                   6         114.9396091        -79.80500675        -35.13460236        -57.77230793        -9.816421644        -22.33520219         207.4130626               False
                   2                   7        -114.9396091         79.80500675         35.13460236        -57.77230793         9.816421644        -22.33520219         207.4130626               False
                   2                   8        -101.8510469         92.89356894         8.957477976         136.9723079         9.816421644        -41.96804548         300.8021066               False
                   3                   1         34.47336904        -30.71471262        -3.758656415         72.19404083         2.282703169          13.4780281         139.3393121               False
                   3                   2         37.51697326         -27.6711084        -9.845864864          7.00595917         2.282703169         8.912621767         61.69618254               False
                   3                   3        -37.51697326          27.6711084         9.845864864          7.00595917        -2.282703169         8.912621767         61.69618254               False
                   3                   4        -34.47336904         30.71471262         3.758656415         72.19404083        -2.282703169          13.4780281         139.3393121               False
                   3                   5         34.47336904        -30.71471262        -3.758656415         72.19404083        -2.282703169         -13.4780281         139.3393121               False
                   3                   6         37.51697326         -27.6711084        -9.845864864          7.00595917        -2.282703169        -8.912621767         61.69618254               False
                   3                   7        -37.51697326          27.6711084         9.845864864          7.00595917         2.282703169        -8.912621767         61.69618254               False
                   3                   8        -34.47336904         30.71471262         3.758656415         72.19404083         2.282703169         -13.4780281         139.3393121               False

***** Strain Data ******
          Element No         Integral No           Strain XX           Strain YY           Strain ZZ           Strain XY           Strain XZ           Strain YZ
                   1                   1       0.00140550448    -0.0007670557946    -0.0006384486854      0.002977043253    -0.0001756805782     0.0001286071091
                   1                   2      0.001288384095      -0.00088417618    -0.0004042079145     -0.001368077296    -0.0001756805782     0.0004799682655
                   1                   3     -0.001288384095       0.00088417618     0.0004042079145     -0.001368077296     0.0001756805782     0.0004799682655
                   1                   4      -0.00140550448     0.0007670557946     0.0006384486854      0.002977043253     0.0001756805782     0.0001286071091
                   1                   5       0.00140550448    -0.0007670557946    -0.0006384486854      0.002977043253     0.0001756805782    -0.0001286071091
                   1                   6      0.001288384095      -0.00088417618    -0.0004042079145     -0.001368077296     0.0001756805782    -0.0004799682655
                   1                   7     -0.001288384095       0.00088417618     0.0004042079145     -0.001368077296    -0.0001756805782    -0.0004799682655
                   1                   8      -0.00140550448     0.0007670557946     0.0006384486854      0.002977043253    -0.0001756805782    -0.0001286071091
                   2                   1     0.0006305064809    -0.0005750554268    -5.545105414e-05      0.001695847622     0.0001215366489     0.0005196043726
                   2                   2     0.0007115309135    -0.0004940309942    -0.0002174999194    -0.0007152761934     0.0001215366489     0.0002765310748
                   2                   3    -0.0007115309135     0.0004940309942     0.0002174999194    -0.0007152761934    -0.0001215366489     0.0002765310748
                   2                   4    -0.0006305064809     0.0005750554268     5.545105414e-05      0.001695847622    -0.0001215366489     0.0005196043726
                   2                   5     0.0006305064809    -0.0005750554268    -5.545105414e-05      0.001695847622    -0.0001215366489    -0.0005196043726
                   2                   6     0.0007115309135    -0.0004940309942    -0.0002174999194    -0.0007152761934    -0.0001215366489    -0.0002765310748
                   2                   7    -0.0007115309135     0.0004940309942     0.0002174999194    -0.0007152761934     0.0001215366489    -0.0002765310748
                   2                   8    -0.0006305064809     0.0005750554268     5.545105414e-05      0.001695847622     0.0001215366489    -0.0005196043726
                   3                   1     0.0002134065702    -0.0001901386972    -2.326787304e-05     0.0008938309817     2.826203923e-05     0.0001668708241
                   3                   2     0.0002322479297    -0.0001712973377    -6.095059202e-05     8.674044687e-05     2.826203923e-05     0.0001103467457
                   3                   3    -0.0002322479297     0.0001712973377     6.095059202e-05     8.674044687e-05    -2.826203923e-05     0.0001103467457
                   3                   4    -0.0002134065702     0.0001901386972     2.326787304e-05     0.0008938309817    -2.826203923e-05     0.0001668708241
                   3                   5     0.0002134065702    -0.0001901386972    -2.326787304e-05     0.0008938309817    -2.826203923e-05    -0.0001668708241
                   3                   6     0.0002322479297    -0.0001712973377    -6.095059202e-05     8.674044687e-05    -2.826203923e-05    -0.0001103467457
                   3                   7    -0.0002322479297     0.0001712973377     6.095059202e-05     8.674044687e-05     2.826203923e-05    -0.0001103467457
                   3                   8    -0.0002134065702     0.0001901386972     2.326787304e-05     0.0008938309817     2.826203923e-05    -0.0001668708241

***** Plastic Strain Data ******
          Element No         Integral No          PStrain XX          PStrain YY          PStrain ZZ          PStrain XY          PStrain XZ          PStrain YZ
                   1                   1     0.0003063872553    -0.0001675582691    -0.0001388289862     0.0006286821039    -3.924493029e-05     2.872928291e-05
                   1                   2                   0                   0                   0                   0                   0                   0
                   1                   3                   0                   0                   0                   0                   0                   0
                   1                   4    -0.0003063872553     0.0001675582691     0.0001388289862     0.0006286821039     3.924493029e-05     2.872928291e-05
                   1                   5     0.0003063872553    -0.0001675582691    -0.0001388289862     0.0006286821039     3.924493029e-05    -2.872928291e-05
                   1                   6                   0                   0                   0                   0                   0                   0
                   1                   7                   0                   0                   0                   0                   0                   0
                   1                   8    -0.0003063872553     0.0001675582691     0.0001388289862     0.0006286821039    -3.924493029e-05    -2.872928291e-05
                   2                   1                   0                   0                   0                   0                   0                   0
                   2                   2                   0                   0                   0                   0                   0                   0
                   2                   3                   0                   0                   0                   0                   0                   0
                   2                   4                   0                   0                   0                   0                   0                   0
                   2                   5                   0                   0                   0                   0                   0                   0
                   2                   6                   0                   0                   0                   0                   0                   0
                   2                   7                   0                   0                   0                   0                   0                   0
                   2                   8                   0                   0                   0                   0                   0                   0
                   3                   1                   0                   0                   0                   0                   0                   0
                   3                   2                   0                   0                   0                   0                   0                   0
                   3                   3                   0                   0                   0                   0                   0                   0
                   3                   4                   0                   0                   0                   0                   0                   0
                   3                   5                   0                   0                   0                   0                   0                   0
                   3                   6                   0                   0                   0                   0                   0                   0
                   3                   7                   0                   0                   0                   0                   0                   0
                   3                   8                   0                   0                   0                   0                   0                   0

***** Reaction Force Data ******
              NodeNo           Magnitude             X Force             Y Force             Z Force----------------------------------------------------------------------------------------------------
                   1         61.05875771        -59.39385223        -9.897096597         10.12865687
                   2      0.002931252629    -0.0003409679948     -0.002903402935    -0.0002150213992
                   3      3.10870377e-14     3.552713679e-15     1.598721155e-14     2.642330799e-14
                   4     6.587666593e-14     9.658940314e-15     -5.86197757e-14     2.846334279e-14
                   5         61.05875771        -59.39385223        -9.897096597        -10.12865687
                   6      0.002931252629    -0.0003409679948     -0.002903402935     0.0002150213992
                   7     1.657864486e-13    -5.329070518e-14    -1.367794766e-13     7.704947791e-14
                   8     1.023671536e-13    -1.643130076e-14    -9.947598301e-14     1.770805724e-14
                   9         61.05875771         59.39385223        -9.897096597        -10.12865687
                  10      0.002931252629     0.0003409679949     -0.002903402935     0.0002150213992
                  11     7.993636617e-14    -2.131628207e-14     4.263256415e-14    -6.417089082e-14
                  12     1.161588448e-13    -5.995204333e-15     1.065814104e-13    -4.579669977e-14
                  13         61.05875771         59.39385223        -9.897096597         10.12865687
                  14      0.002931252629     0.0003409679949     -0.002903402935    -0.0002150213992
                  15     8.094401492e-14     5.329070518e-14    -5.329070518e-14    -2.953193246e-14
                  16     9.989616511e-14     -1.33226763e-15     9.947598301e-14    -9.055256545e-15

*Increment 100

***** Displacement Data ******
              NodeNo           Magnitude      X Displacement      Y Displacement      Z Displacement
----------------------------------------------------------------------------------------------------
                   1                   0                   0                   0                   0
                   2       0.00607836164      0.003840777724      0.004680612878    -0.0005355088993
                   3        0.0161077317      0.005950712284       0.01496734098     -0.000163547774
                   4       0.02884852606      0.006656631013       0.02806992237    -7.859635041e-05
                   5                   0                   0                   0                   0
                   6       0.00607836164      0.003840777724      0.004680612878     0.0005355088993
                   7        0.0161077317      0.005950712284       0.01496734098      0.000163547774
                   8       0.02884852606      0.006656631013       0.02806992237     7.859635041e-05
                   9                   0                   0                   0                   0
                  10       0.00607836164     -0.003840777724      0.004680612878     0.0005355088993
                  11        0.0161077317     -0.005950712284       0.01496734098      0.000163547774
                  12       0.02884852606     -0.006656631013       0.02806992237     7.859635041e-05
                  13                   0                   0                   0                   0
                  14       0.00607836164     -0.003840777724      0.004680612878    -0.0005355088993
                  15        0.0161077317     -0.005950712284       0.01496734098     -0.000163547774
                  16       0.02884852606     -0.006656631013       0.02806992237    -7.859635041e-05

***** Stress Data ******
          Element No         Integral No           Stress XX           Stress YY           Stress ZZ           Stress XY           Stress XZ           Stress YZ               Mises            YieldFlg
                   1                   1         177.7116739        -96.88361399        -80.82805993          191.247433        -10.96614736          8.02777703         426.0662157                True
                   1                   2         212.5452502        -145.6620968        -66.88315338        -111.2708341        -14.41754729         39.38947172         385.6438941               False
                   1                   3        -212.5452502         145.6620968         66.88315338        -111.2708341         14.41754729         39.38947172         385.6438941               False
                   1                   4        -177.7116739         96.88361399         80.82805993          191.247433         10.96614736          8.02777703         426.0662157                True
                   1                   5         177.7116739        -96.88361399        -80.82805993          191.247433         10.96614736         -8.02777703         426.0662157                True
                   1                   6         212.5452502        -145.6620968        -66.88315338        -111.2708341         14.41754729        -39.38947172         385.6438941               False
                   1                   7        -212.5452502         145.6620968         66.88315338        -111.2708341        -14.41754729        -39.38947172         385.6438941               False
                   1                   8        -177.7116739         96.88361399         80.82805993          191.247433        -10.96614736         -8.02777703         426.0662157                True
                   2                   1         102.7791139        -94.00240157        -8.776712292         138.3907577         10.01433799         42.61284464         304.0065338               False
                   2                   2         116.1315645        -80.64995092         -35.4816136        -58.39075772         10.01433799         22.58416866         209.6050723               False
                   2                   3        -116.1315645         80.64995092          35.4816136        -58.39075772        -10.01433799         22.58416866         209.6050723               False
                   2                   4        -102.7791139         94.00240157         8.776712292         138.3907577        -10.01433799         42.61284464         304.0065338               False
                   2                   5         102.7791139        -94.00240157        -8.776712292         138.3907577        -10.01433799        -42.61284464         304.0065338               False
                   2                   6         116.1315645        -80.64995092         -35.4816136        -58.39075772        -10.01433799        -22.58416866         209.6050723               False
                   2                   7        -116.1315645         80.64995092          35.4816136        -58.39075772         10.01433799        -22.58416866         209.6050723               False
                   2                   8        -102.7791139         94.00240157         8.776712292         138.3907577         10.01433799        -42.61284464         304.0065338               False
                   3                   1         34.83876417        -30.99823381         -3.84053036         72.91849899         2.287153712         13.57885173         140.7275411               False
                   3                   2         37.88830245        -27.94869553        -9.939606925         7.081501009         2.287153712         9.004544301         62.31015074               False
                   3                   3        -37.88830245         27.94869553         9.939606925         7.081501009        -2.287153712         9.004544301         62.31015074               False
                   3                   4        -34.83876417         30.99823381          3.84053036         72.91849899        -2.287153712         13.57885173         140.7275411               False
                   3                   5         34.83876417        -30.99823381         -3.84053036         72.91849899        -2.287153712        -13.57885173         140.7275411               False
                   3                   6         37.88830245        -27.94869553        -9.939606925         7.081501009        -2.287153712        -9.004544301         62.31015074               False
                   3                   7        -37.88830245         27.94869553         9.939606925         7.081501009         2.287153712        -9.004544301         62.31015074               False
                   3                   8        -34.83876417         30.99823381          3.84053036         72.91849899         2.287153712        -13.57885173         140.7275411               False

***** Strain Data ******
          Element No         Integral No           Strain XX           Strain YY           Strain ZZ           Strain XY           Strain XZ           Strain YZ
                   1                   1      0.001434758288    -0.0007827157646    -0.0006520425238      0.003057309207    -0.0001785029664     0.0001306732407
                   1                   2      0.001315756311    -0.0009017177422    -0.0004140385686     -0.001377638899    -0.0001785029664     0.0004876791736
                   1                   3     -0.001315756311     0.0009017177422     0.0004140385686     -0.001377638899     0.0001785029664     0.0004876791736
                   1                   4     -0.001434758288     0.0007827157646     0.0006520425238      0.003057309207     0.0001785029664     0.0001306732407
                   1                   5      0.001434758288    -0.0007827157646    -0.0006520425238      0.003057309207     0.0001785029664    -0.0001306732407
                   1                   6      0.001315756311    -0.0009017177422    -0.0004140385686     -0.001377638899     0.0001785029664    -0.0004876791736
                   1                   7     -0.001315756311     0.0009017177422     0.0004140385686     -0.001377638899    -0.0001785029664    -0.0004876791736
                   1                   8     -0.001434758288     0.0007827157646     0.0006520425238      0.003057309207    -0.0001785029664    -0.0001306732407
                   2                   1     0.0006362516573    -0.0005819196288    -5.433202848e-05      0.001713409381     0.0001239870418     0.0005275876003
                   2                   2     0.0007189096851    -0.0004992616009    -0.0002196480842    -0.0007229331908     0.0001239870418     0.0002796135167
                   2                   3    -0.0007189096851     0.0004992616009     0.0002196480842    -0.0007229331908    -0.0001239870418     0.0002796135167
                   2                   4    -0.0006362516573     0.0005819196288     5.433202848e-05      0.001713409381    -0.0001239870418     0.0005275876003
                   2                   5     0.0006362516573    -0.0005819196288    -5.433202848e-05      0.001713409381    -0.0001239870418    -0.0005275876003
                   2                   6     0.0007189096851    -0.0004992616009    -0.0002196480842    -0.0007229331908    -0.0001239870418    -0.0002796135167
                   2                   7    -0.0007189096851     0.0004992616009     0.0002196480842    -0.0007229331908     0.0001239870418    -0.0002796135167
                   2                   8    -0.0006362516573     0.0005819196288     5.433202848e-05      0.001713409381     0.0001239870418    -0.0005275876003
                   3                   1     0.0002156685401    -0.0001918938284    -2.377471175e-05     0.0009028004637      2.83171412e-05     0.0001681191166
                   3                   2     0.0002345466342    -0.0001730157342    -6.153090001e-05     8.767572678e-05      2.83171412e-05     0.0001114848342
                   3                   3    -0.0002345466342     0.0001730157342     6.153090001e-05     8.767572678e-05     -2.83171412e-05     0.0001114848342
                   3                   4    -0.0002156685401     0.0001918938284     2.377471175e-05     0.0009028004637     -2.83171412e-05     0.0001681191166
                   3                   5     0.0002156685401    -0.0001918938284    -2.377471175e-05     0.0009028004637     -2.83171412e-05    -0.0001681191166
                   3                   6     0.0002345466342    -0.0001730157342    -6.153090001e-05     8.767572678e-05     -2.83171412e-05    -0.0001114848342
                   3                   7    -0.0002345466342     0.0001730157342     6.153090001e-05     8.767572678e-05      2.83171412e-05    -0.0001114848342
                   3                   8    -0.0002156685401     0.0001918938284     2.377471175e-05     0.0009028004637      2.83171412e-05    -0.0001681191166

***** Plastic Strain Data ******
          Element No         Integral No          PStrain XX          PStrain YY          PStrain ZZ          PStrain XY          PStrain XZ          PStrain YZ
                   1                   1     0.0003346384022    -0.0001829600589    -0.0001516783433     0.0006894838461     -4.27316182e-05     3.128171561e-05
                   1                   2                   0                   0                   0                   0                   0                   0
                   1                   3                   0                   0                   0                   0                   0                   0
                   1                   4    -0.0003346384022     0.0001829600589     0.0001516783433     0.0006894838461      4.27316182e-05     3.128171561e-05
                   1                   5     0.0003346384022    -0.0001829600589    -0.0001516783433     0.0006894838461      4.27316182e-05    -3.128171561e-05
                   1                   6                   0                   0                   0                   0                   0                   0
                   1                   7                   0                   0                   0                   0                   0                   0
                   1                   8    -0.0003346384022     0.0001829600589     0.0001516783433     0.0006894838461     -4.27316182e-05    -3.128171561e-05
                   2                   1                   0                   0                   0                   0                   0                   0
                   2                   2                   0                   0                   0                   0                   0                   0
                   2                   3                   0                   0                   0                   0                   0                   0
                   2                   4                   0                   0                   0                   0                   0                   0
                   2                   5                   0                   0                   0                   0                   0                   0
                   2                   6                   0                   0                   0                   0                   0                   0
                   2                   7                   0                   0                   0                   0                   0                   0
                   2                   8                   0                   0                   0                   0                   0                   0
                   3                   1                   0                   0                   0                   0                   0                   0
                   3                   2                   0                   0                   0                   0                   0                   0
                   3                   3                   0                   0                   0                   0                   0                   0
                   3                   4                   0                   0                   0                   0                   0                   0
                   3                   5                   0                   0                   0                   0                   0                   0
                   3                   6                   0                   0                   0                   0                   0                   0
                   3                   7                   0                   0                   0                   0                   0                   0
                   3                   8                   0                   0                   0                   0                   0                   0

***** Reaction Force Data ******
              NodeNo           Magnitude             X Force             Y Force             Z Force----------------------------------------------------------------------------------------------------
                   1         61.66768849        -59.99381776        -9.997074863         10.18352243
                   2      0.002951806949    -0.0003319682338     -0.002925137018    -0.0002157192152
                   3     1.102057281e-13     2.486899575e-14    -1.030286967e-13    -3.019806627e-14
                   4     4.652882848e-14    -9.436895709e-15     3.730349363e-14     2.615963002e-14
                   5         61.66768849        -59.99381776        -9.997074863        -10.18352243
                   6      0.002951806949    -0.0003319682338     -0.002925137018     0.0002157192152
                   7     8.954786656e-14     7.105427358e-15    -8.526512829e-14     2.642330799e-14
                   8     7.886993814e-14     -1.33226763e-15    -6.572520306e-14     4.357625372e-14
                   9         61.66768849         59.99381776        -9.997074863        -10.18352243
                  10      0.002951806949     0.0003319682337     -0.002925137018     0.0002157192151
                  11     6.055918055e-14     2.486899575e-14     1.065814104e-14     -5.41788836e-14
                  12     1.026288034e-13     9.270362256e-15     7.460698725e-14    -6.986078382e-14
                  13         61.66768849         59.99381776        -9.997074863         10.18352243
                  14      0.002951806949     0.0003319682337     -0.002925137018    -0.0002157192151
                  15     1.303568259e-13     7.815970093e-14     9.059419881e-14     5.173639295e-14
                  16     4.370789882e-14    -4.352074257e-14    -1.776356839e-15     3.629041512e-15

